crystal structure from VMoWS2 with Hexag
   1.00000000000000     
     8.3297853828381072    4.8239754733864046    0.0000000000000000
    -8.3119038002250267    4.7931082932679097    0.0000000000000000
     0.0000000000000000    0.0000000000000000   30.0000000000000000
   V    Mo   W    S 
     3     3     3    18
Direct
  0.7065674252455211  0.3525686749465139 -0.0027071817462924
  0.6989649810353641  0.0158518755064508 -0.0015917281650327
  0.2943896124162974  0.6466908362940884  0.0027752335025688
  0.0050767850656568  0.0006069312722486 -0.0002600857739991
 -0.0002866708259646  0.6865330269510327 -0.0000617246733204
  1.0039254408996259  0.3163672081186730 -0.0001185977415307
  0.2981563964081279 -0.0149615948820554  0.0015233384990097
  0.2965958399471955  0.3111601125214239  0.0017961805632444
  0.7024552647643142  0.6873070152153585 -0.0014229890046010
  0.1081661176190863  0.2178645210152960  0.9436609849183184
  0.2191540586219112  0.1093888294113928  0.0573178403348172
  0.1075402526935141  0.5538849335908500  0.9496503351021938
  0.2191167953565902  0.4431503659408690  0.0555752234687839
  0.1078815549839472  0.8896578846803306  0.9434407387445702
  0.2193953655970067  0.7751785024762441  0.0551486090948884
  0.4484742271242292  0.2243331058982686  0.9551699135380379
  0.5588180616346502  0.1142746569971808  0.0422627233333675
  0.4420826052575768  0.5573011465194335  0.9573193711754370
  0.5575318118380587  0.4414220039241568  0.0429603091083091
  0.4431933301707942  0.8849907908641020  0.9577666665028304
  0.5528857017224862  0.7789715382939246  0.0436687179867080
  0.7783603009543479  0.2197560697984230  0.9462473180211133
  0.8851107535119185  0.1071830458162627  0.0538236461907846
  0.7812520285092271  0.5563041304080054  0.9448005412194618
  0.8933944574658300  0.4464437128338151  0.0500287858154665
  0.7776413873018450  0.8930478542082552  0.9451131532255678
  0.8923705681178199  0.7829372748570296  0.0561125759592888
 
  0.00000000E+00  0.00000000E+00  0.00000000E+00
  0.00000000E+00  0.00000000E+00  0.00000000E+00
  0.00000000E+00  0.00000000E+00  0.00000000E+00
  0.00000000E+00  0.00000000E+00  0.00000000E+00
  0.00000000E+00  0.00000000E+00  0.00000000E+00
  0.00000000E+00  0.00000000E+00  0.00000000E+00
  0.00000000E+00  0.00000000E+00  0.00000000E+00
  0.00000000E+00  0.00000000E+00  0.00000000E+00
  0.00000000E+00  0.00000000E+00  0.00000000E+00
  0.00000000E+00  0.00000000E+00  0.00000000E+00
  0.00000000E+00  0.00000000E+00  0.00000000E+00
  0.00000000E+00  0.00000000E+00  0.00000000E+00
  0.00000000E+00  0.00000000E+00  0.00000000E+00
  0.00000000E+00  0.00000000E+00  0.00000000E+00
  0.00000000E+00  0.00000000E+00  0.00000000E+00
  0.00000000E+00  0.00000000E+00  0.00000000E+00
  0.00000000E+00  0.00000000E+00  0.00000000E+00
  0.00000000E+00  0.00000000E+00  0.00000000E+00
  0.00000000E+00  0.00000000E+00  0.00000000E+00
  0.00000000E+00  0.00000000E+00  0.00000000E+00
  0.00000000E+00  0.00000000E+00  0.00000000E+00
  0.00000000E+00  0.00000000E+00  0.00000000E+00
  0.00000000E+00  0.00000000E+00  0.00000000E+00
  0.00000000E+00  0.00000000E+00  0.00000000E+00
  0.00000000E+00  0.00000000E+00  0.00000000E+00
  0.00000000E+00  0.00000000E+00  0.00000000E+00
  0.00000000E+00  0.00000000E+00  0.00000000E+00
