crystal structure from VMoWS2 with Hexag
   1.00000000000000     
     8.3259095553094955    4.8272186960506289    0.0000000000000000
    -8.3091433558111589    4.7982863676673375    0.0000000000000000
     0.0000000000000000    0.0000000000000000   30.0000000000000000
   V    Mo   W    S 
     3     3     3    18
Direct
  0.6380777982251671 -0.0036197661327966  0.0004043442952160
  0.0307332076854367  0.0344561632126934 -0.0005060052506145
  0.6290012953600655  0.3098608185572083  0.0009081937617132
  0.3324991043229517  0.3362486890344821  0.0005339993916808
  1.0376372071233084  0.3557916418198956 -0.0016685303590730
  0.3281837507283180 -0.0043252191687281  0.0000503960072642
  0.0266620815297298  0.6698604468539239 -0.0006588654013676
  0.3119809962992056  0.6613990653767486  0.0013624348114609
  0.6581785230309990  0.6342856692844374 -0.0006742118020927
  0.1164563860416483  0.2241557094305521  0.9445724307520563
  0.2185971763064654  0.1126791336696152  0.0536000591980579
  0.1170719278376372  0.5603026669063279  0.9423156008746685
  0.2310891957449127  0.4516516228234858  0.0558865569263558
  0.1028960981986966  0.8898431656497414  0.9479984287794976
  0.2231103118032287  0.7807107139895549  0.0559793134843757
  0.4404206489959029  0.2187858768371204  0.9472337550696478
  0.5512921972486896  0.1102286985558632  0.0533925017043142
  0.4465658250871828  0.5620094011579727  0.9486574409736978
  0.5556467325686280  0.4358940623090126  0.0550490370645061
  0.4421118576636989  0.8873719601697929  0.9479419446344507
  0.5585423699162552  0.7801108078433522  0.0484784782827137
  0.7759485531459605  0.2221756455731407  0.9553831909998192
  0.8913479074012237  0.1151894225887457  0.0456029044429766
  0.7751959396882192  0.5367544940042758  0.9502762057374780
  0.8827475147292888  0.4379467864567924  0.0455470896384353
  0.7802484635952884  0.8914213204953927  0.9573405323326234
  0.8959713831589036  0.7870254561789871  0.0449926728501285
 
  0.00000000E+00  0.00000000E+00  0.00000000E+00
  0.00000000E+00  0.00000000E+00  0.00000000E+00
  0.00000000E+00  0.00000000E+00  0.00000000E+00
  0.00000000E+00  0.00000000E+00  0.00000000E+00
  0.00000000E+00  0.00000000E+00  0.00000000E+00
  0.00000000E+00  0.00000000E+00  0.00000000E+00
  0.00000000E+00  0.00000000E+00  0.00000000E+00
  0.00000000E+00  0.00000000E+00  0.00000000E+00
  0.00000000E+00  0.00000000E+00  0.00000000E+00
  0.00000000E+00  0.00000000E+00  0.00000000E+00
  0.00000000E+00  0.00000000E+00  0.00000000E+00
  0.00000000E+00  0.00000000E+00  0.00000000E+00
  0.00000000E+00  0.00000000E+00  0.00000000E+00
  0.00000000E+00  0.00000000E+00  0.00000000E+00
  0.00000000E+00  0.00000000E+00  0.00000000E+00
  0.00000000E+00  0.00000000E+00  0.00000000E+00
  0.00000000E+00  0.00000000E+00  0.00000000E+00
  0.00000000E+00  0.00000000E+00  0.00000000E+00
  0.00000000E+00  0.00000000E+00  0.00000000E+00
  0.00000000E+00  0.00000000E+00  0.00000000E+00
  0.00000000E+00  0.00000000E+00  0.00000000E+00
  0.00000000E+00  0.00000000E+00  0.00000000E+00
  0.00000000E+00  0.00000000E+00  0.00000000E+00
  0.00000000E+00  0.00000000E+00  0.00000000E+00
  0.00000000E+00  0.00000000E+00  0.00000000E+00
  0.00000000E+00  0.00000000E+00  0.00000000E+00
  0.00000000E+00  0.00000000E+00  0.00000000E+00
