crystal structure from VMoWS2 with Hexag
   1.00000000000000     
     8.3423307179375730    4.8185369497295323    0.0000000000000000
    -8.3594549431488652    4.8479058083686271    0.0000000000000000
     0.0000000000000000    0.0000000000000000   30.0000000000000000
   V    Mo   W    S 
     3     3     3    18
Direct
  0.6472209534318760  0.2938846710725565 -0.0025975256162958
  0.6441080431437930 -0.0202804100102388 -0.0000853156228530
  1.0171265768489073  0.3671033339851666  0.0017652469083809
  0.3229382728737950 -0.0291582631551534 -0.0009105155839551
  0.6525846630552922  0.6848317970133061  0.0007257140513274
  0.3372962225130772  0.6714518503646782  0.0005003488237061
 -0.0092897298514752 -0.0379177835312237 -0.0027625799390683
  0.0277138311088452  0.6844447261764162  0.0003466301888286
  0.3506554017096835  0.3773182700669422  0.0018301347978401
  0.1123877198512498  0.2243809448550727  0.9557948612059256
  0.2245847354110341  0.1178911040144232  0.0438838443029642
  0.1122740447235989  0.5563065388465607  0.9467983136287240
  0.2205856447518121  0.4501601952398092  0.0548697713617331
  0.1131201527377724  0.8815872719824389  0.9422150106671195
  0.2236760488664498  0.7759021165681810  0.0568302393416509
  0.4376685696856555  0.2219125630469260  0.9520655621246674
  0.5535289983502054  0.1026978873836839  0.0512174704992632
  0.4482921603678825  0.5669902679013894  0.9447083186493326
  0.5630826458236601  0.4463896547253224  0.0500111999416257
  0.4501123184274531  0.8910146288880300  0.9452145184280568
  0.5552015650659118  0.7869186541798122  0.0557856733688962
  0.7813324113156322  0.2178765613714454  0.9532164085386472
  0.8918327817831174  0.1130897780055285  0.0409139823124630
  0.7733359696014184  0.5475664390998477  0.9597076338911613
  0.8840431662096075  0.4405719977254423  0.0484246435139632
  0.7759257545593281  0.8946714007798138  0.9465793422080880
  0.8868755310713952  0.7706082568813973  0.0529509672077955
 
  0.00000000E+00  0.00000000E+00  0.00000000E+00
  0.00000000E+00  0.00000000E+00  0.00000000E+00
  0.00000000E+00  0.00000000E+00  0.00000000E+00
  0.00000000E+00  0.00000000E+00  0.00000000E+00
  0.00000000E+00  0.00000000E+00  0.00000000E+00
  0.00000000E+00  0.00000000E+00  0.00000000E+00
  0.00000000E+00  0.00000000E+00  0.00000000E+00
  0.00000000E+00  0.00000000E+00  0.00000000E+00
  0.00000000E+00  0.00000000E+00  0.00000000E+00
  0.00000000E+00  0.00000000E+00  0.00000000E+00
  0.00000000E+00  0.00000000E+00  0.00000000E+00
  0.00000000E+00  0.00000000E+00  0.00000000E+00
  0.00000000E+00  0.00000000E+00  0.00000000E+00
  0.00000000E+00  0.00000000E+00  0.00000000E+00
  0.00000000E+00  0.00000000E+00  0.00000000E+00
  0.00000000E+00  0.00000000E+00  0.00000000E+00
  0.00000000E+00  0.00000000E+00  0.00000000E+00
  0.00000000E+00  0.00000000E+00  0.00000000E+00
  0.00000000E+00  0.00000000E+00  0.00000000E+00
  0.00000000E+00  0.00000000E+00  0.00000000E+00
  0.00000000E+00  0.00000000E+00  0.00000000E+00
  0.00000000E+00  0.00000000E+00  0.00000000E+00
  0.00000000E+00  0.00000000E+00  0.00000000E+00
  0.00000000E+00  0.00000000E+00  0.00000000E+00
  0.00000000E+00  0.00000000E+00  0.00000000E+00
  0.00000000E+00  0.00000000E+00  0.00000000E+00
  0.00000000E+00  0.00000000E+00  0.00000000E+00
