crystal structure from VMoWS2 with Hexag
   1.00000000000000     
     8.3811788652327550    4.8198282074644707    0.0000000000000000
    -8.3860568110740381    4.8283474321350672    0.0000000000000000
     0.0000000000000000    0.0000000000000000   30.0000000000000000
   V    Mo   W    S 
     3     3     3    18
Direct
  0.6472809080165629  0.3503191796187279 -0.0018372556245310
 -0.0156803892701739  0.0213145433090914 -0.0024591951926329
  0.3248495854300687  0.3187060439678415  0.0013964447855057
  0.3319465431371359  0.6808581276339225 -0.0000258426500785
  1.0367637217483958  0.3523507169682720 -0.0003574712292670
  0.3486815686799283 -0.0174811312526630  0.0005317840862160
  0.0263008506947064  0.6539304171012850  0.0011366612674257
  0.6475369028429662 -0.0295134918895296 -0.0000775913044810
  0.6421676680737728  0.6680832896264706  0.0001077656275580
  0.1185589950193922  0.2212202680061783  0.9466848734625712
  0.2137008243882559  0.1035933703248430  0.0462542285566725
  0.1194764287236231  0.5572904757400016  0.9436280489209329
  0.2351602104411568  0.4469634314336171  0.0528230592880215
  0.1078450348377761  0.8900378930157106  0.9547403844072315
  0.2238096642060421  0.7783968980854151  0.0565285635627761
  0.4417147565239703  0.2201846847532346  0.9504336506514243
  0.5639042207035226  0.1183504821030850  0.0499178256103005
  0.4375035009812930  0.5478747754348019  0.9489749964670670
  0.5482733288636980  0.4416957270556908  0.0519612358285418
  0.4483593560798321  0.8866417325714427  0.9433831502006457
  0.5489137084752452  0.7756788745450286  0.0566970102076339
  0.7755301020510762  0.2264197585028101  0.9596069824221302
  0.8881063047839663  0.1144666555427363  0.0497188716387502
  0.7807350828739527  0.5610989012429246  0.9523882144120878
  0.8860094052228517  0.4394062028310873  0.0493433252471047
  0.7774551766264122  0.8898178643718451  0.9465471766291855
  0.8933109932815825  0.7805087628337077  0.0419530019211845
 
  0.00000000E+00  0.00000000E+00  0.00000000E+00
  0.00000000E+00  0.00000000E+00  0.00000000E+00
  0.00000000E+00  0.00000000E+00  0.00000000E+00
  0.00000000E+00  0.00000000E+00  0.00000000E+00
  0.00000000E+00  0.00000000E+00  0.00000000E+00
  0.00000000E+00  0.00000000E+00  0.00000000E+00
  0.00000000E+00  0.00000000E+00  0.00000000E+00
  0.00000000E+00  0.00000000E+00  0.00000000E+00
  0.00000000E+00  0.00000000E+00  0.00000000E+00
  0.00000000E+00  0.00000000E+00  0.00000000E+00
  0.00000000E+00  0.00000000E+00  0.00000000E+00
  0.00000000E+00  0.00000000E+00  0.00000000E+00
  0.00000000E+00  0.00000000E+00  0.00000000E+00
  0.00000000E+00  0.00000000E+00  0.00000000E+00
  0.00000000E+00  0.00000000E+00  0.00000000E+00
  0.00000000E+00  0.00000000E+00  0.00000000E+00
  0.00000000E+00  0.00000000E+00  0.00000000E+00
  0.00000000E+00  0.00000000E+00  0.00000000E+00
  0.00000000E+00  0.00000000E+00  0.00000000E+00
  0.00000000E+00  0.00000000E+00  0.00000000E+00
  0.00000000E+00  0.00000000E+00  0.00000000E+00
  0.00000000E+00  0.00000000E+00  0.00000000E+00
  0.00000000E+00  0.00000000E+00  0.00000000E+00
  0.00000000E+00  0.00000000E+00  0.00000000E+00
  0.00000000E+00  0.00000000E+00  0.00000000E+00
  0.00000000E+00  0.00000000E+00  0.00000000E+00
  0.00000000E+00  0.00000000E+00  0.00000000E+00
