crystal structure from VMoWS2 with Hexag
   1.00000000000000     
     8.3510208307317253    4.8197353792488595    0.0000000000000000
    -8.3360819976506821    4.7937432401821587    0.0000000000000000
     0.0000000000000000    0.0000000000000000   30.0000000000000000
   V    Mo   W    S 
     3     3     3    18
Direct
  0.6299690082864396  0.6548650128656559  0.0001254566488367
  0.6535191779677333  0.3085025902107805 -0.0004635937368438
  0.3552814268161876 -0.0149640131048412  0.0003272999061630
  0.3294811645690929  0.6598833187727234  0.0005373685695662
  0.3141981231447479  0.3472730242403195 -0.0010424505504167
  0.6670255180494624 -0.0017235193806938 -0.0003469382667883
  0.0008990465534232  0.0245402963700545 -0.0004862726671225
  1.0133793707973353  0.3214037863169296  0.0013888900529350
  0.0337567862256502  0.6955836822405073  0.0002341148551379
  0.1086800127937337  0.2244962262173327  0.9423953498144375
  0.2290823727117077  0.1100964922766196  0.0459999036854591
  0.1043123161996275  0.5519666382481775  0.9489598804659191
  0.2173202124775518  0.4464967389289462  0.0564554432719931
  0.1300991059661986  0.9041846517655372  0.9493051980180020
  0.2335079756726758  0.7873112195339186  0.0551195702034295
  0.4413395076366080  0.2167041490202835  0.9529413152620010
  0.5558665206868909  0.1089977427400364  0.0529269954090745
  0.4429706879465717  0.5576755283486577  0.9448792358869295
  0.5497607207746115  0.4422810155967460  0.0480290424581157
  0.4469241732750025  0.8867186280288166  0.9469480728350923
  0.5545999366508246  0.7723830714211095  0.0530954650175695
  0.7796204332878531  0.2246447135717387  0.9499863538855867
  0.8863923095504176  0.1106184800748703  0.0549595594286768
  0.7769808143030303  0.5563679060850476  0.9571481390466777
  0.8868347689266624  0.4461483261365239  0.0460573441672869
  0.7773308481541533  0.8794214216771136  0.9492777125914370
  0.8790821140128107  0.7763373252746685  0.0452414429408513
 
  0.00000000E+00  0.00000000E+00  0.00000000E+00
  0.00000000E+00  0.00000000E+00  0.00000000E+00
  0.00000000E+00  0.00000000E+00  0.00000000E+00
  0.00000000E+00  0.00000000E+00  0.00000000E+00
  0.00000000E+00  0.00000000E+00  0.00000000E+00
  0.00000000E+00  0.00000000E+00  0.00000000E+00
  0.00000000E+00  0.00000000E+00  0.00000000E+00
  0.00000000E+00  0.00000000E+00  0.00000000E+00
  0.00000000E+00  0.00000000E+00  0.00000000E+00
  0.00000000E+00  0.00000000E+00  0.00000000E+00
  0.00000000E+00  0.00000000E+00  0.00000000E+00
  0.00000000E+00  0.00000000E+00  0.00000000E+00
  0.00000000E+00  0.00000000E+00  0.00000000E+00
  0.00000000E+00  0.00000000E+00  0.00000000E+00
  0.00000000E+00  0.00000000E+00  0.00000000E+00
  0.00000000E+00  0.00000000E+00  0.00000000E+00
  0.00000000E+00  0.00000000E+00  0.00000000E+00
  0.00000000E+00  0.00000000E+00  0.00000000E+00
  0.00000000E+00  0.00000000E+00  0.00000000E+00
  0.00000000E+00  0.00000000E+00  0.00000000E+00
  0.00000000E+00  0.00000000E+00  0.00000000E+00
  0.00000000E+00  0.00000000E+00  0.00000000E+00
  0.00000000E+00  0.00000000E+00  0.00000000E+00
  0.00000000E+00  0.00000000E+00  0.00000000E+00
  0.00000000E+00  0.00000000E+00  0.00000000E+00
  0.00000000E+00  0.00000000E+00  0.00000000E+00
  0.00000000E+00  0.00000000E+00  0.00000000E+00
