crystal structure from VMoWS2 with Hexag
   1.00000000000000     
     8.3943486656590078    4.8270055699072829    0.0000000000000000
    -8.3901979480699307    4.8199388131546375    0.0000000000000000
     0.0000000000000000    0.0000000000000000   30.0000000000000000
   V    Mo   W    S 
     3     3     3    18
Direct
  0.0185400546873311 -0.0238177398264250  0.0023260313879135
  0.3061018140362951  0.3400032282907528 -0.0008798295056703
  0.3006163833746585  0.6572662394957743 -0.0002138777952327
 -0.0212708382941558  0.6436406383818429 -0.0003130204424743
  0.9907896228288179  0.3487959327262206 -0.0006927880987583
  0.6858520784012074  0.3338027894810583  0.0001769281243313
  0.3636177494630047  0.0184630698620777 -0.0003582048886012
  0.6647410609249769  0.0300754122942603 -0.0013365333075891
  0.6844326145544085  0.6463424129704189  0.0014195033976909
  0.1017761634572149  0.2096524221702320  0.9529147264692500
  0.2258719270498903  0.1181896438363758  0.0501919966573567
  0.1106082485173856  0.5566566060206060  0.9449161978177204
  0.2186730061730652  0.4508949153188268  0.0509477776429271
  0.1193022031943164  0.8864889016497967  0.9505208229117078
  0.2220428523054022  0.7814138519032243  0.0488146164126745
  0.4428192663312704  0.2342128128735046  0.9520188929648246
  0.5627518790975266  0.1188184121882129  0.0563369244202822
  0.4403113408857081  0.5587527732953267  0.9541468537811783
  0.5460521086677030  0.4353159645117708  0.0498252721998061
  0.4452003739295288  0.8867191622992673  0.9482344815409406
  0.5529174524331086  0.7755167562559293  0.0411479019807795
  0.7808856344891639  0.2258903761039537  0.9427081988747259
  0.8934161530317704  0.1060159652170209  0.0455984251244069
  0.7759875877723279  0.5488466177737431  0.9436588451163282
  0.8888400740661272  0.4443598774352802  0.0566141020543051
  0.7845591358833170  0.8914626910416893  0.9567825900624793
  0.8927785061756019  0.7744347199068308  0.0544930642966880
 
  0.00000000E+00  0.00000000E+00  0.00000000E+00
  0.00000000E+00  0.00000000E+00  0.00000000E+00
  0.00000000E+00  0.00000000E+00  0.00000000E+00
  0.00000000E+00  0.00000000E+00  0.00000000E+00
  0.00000000E+00  0.00000000E+00  0.00000000E+00
  0.00000000E+00  0.00000000E+00  0.00000000E+00
  0.00000000E+00  0.00000000E+00  0.00000000E+00
  0.00000000E+00  0.00000000E+00  0.00000000E+00
  0.00000000E+00  0.00000000E+00  0.00000000E+00
  0.00000000E+00  0.00000000E+00  0.00000000E+00
  0.00000000E+00  0.00000000E+00  0.00000000E+00
  0.00000000E+00  0.00000000E+00  0.00000000E+00
  0.00000000E+00  0.00000000E+00  0.00000000E+00
  0.00000000E+00  0.00000000E+00  0.00000000E+00
  0.00000000E+00  0.00000000E+00  0.00000000E+00
  0.00000000E+00  0.00000000E+00  0.00000000E+00
  0.00000000E+00  0.00000000E+00  0.00000000E+00
  0.00000000E+00  0.00000000E+00  0.00000000E+00
  0.00000000E+00  0.00000000E+00  0.00000000E+00
  0.00000000E+00  0.00000000E+00  0.00000000E+00
  0.00000000E+00  0.00000000E+00  0.00000000E+00
  0.00000000E+00  0.00000000E+00  0.00000000E+00
  0.00000000E+00  0.00000000E+00  0.00000000E+00
  0.00000000E+00  0.00000000E+00  0.00000000E+00
  0.00000000E+00  0.00000000E+00  0.00000000E+00
  0.00000000E+00  0.00000000E+00  0.00000000E+00
  0.00000000E+00  0.00000000E+00  0.00000000E+00
