crystal structure from VMoWS2 with Hexag
   1.00000000000000     
     8.3093799816665594    4.8237155510277896    0.0000000000000000
    -8.2868453439102989    4.7847207774677747    0.0000000000000000
     0.0000000000000000    0.0000000000000000   30.0000000000000000
   V    Mo   W    S 
     3     3     3    18
Direct
 -0.0318420295068253  0.6506947286011954  0.0015420059714141
  0.3675591309263775  0.6832444299430557 -0.0017326059223994
  0.3675675178811014  0.0175795156625851 -0.0017287977112695
  0.6664784443629467  0.3392269036427449 -0.0001869244259525
  0.6664955880915305  0.6605989844685013 -0.0001867394865205
  0.6755266695037316  0.0043241913810252 -0.0003612827335100
 -0.0391928094042146 -0.0173861415124978  0.0022765989448032
  0.9607883734036224  0.3114617659063172  0.0022819702416100
  0.3731635292924837  0.3532200464298663 -0.0019978991778274
  0.1121793768988503  0.2227344076406110  0.9555752974529410
  0.2225452743656254  0.1100390374740850  0.0436755489781588
  0.1110795434592032  0.5564077227433990  0.9571685156960855
  0.2225359167691539  0.4457743340355328  0.0436805507562384
  0.1111006986126353  0.8879390395835317  0.9571744723628445
  0.2236898681352793  0.7784819901569526  0.0421276926023584
  0.4471671060430585  0.2203259862383377  0.9445343160971909
  0.5534739242001676  0.1103968558818966  0.0525187250957702
  0.4471905655779798  0.5601058809905013  0.9445267869481258
  0.5607264010060212  0.4470128932831617  0.0555875848763493
  0.4427783405617408  0.8880230826024242  0.9468974948312305
  0.5534847593774365  0.7763543367709214  0.0525331966121280
  0.7721762850159660  0.2205036946778237  0.9450719583793061
  0.8806182113308245  0.1069401378677289  0.0580449278732848
  0.7822663287491706  0.5577657992419328  0.9458265762908300
  0.8882052883002572  0.4483512695692328  0.0550485248990890
  0.7722191182831746  0.8849443821059776  0.9450576279236815
  0.8882330321996811  0.7731491780907302  0.0550437758240315
 
  0.00000000E+00  0.00000000E+00  0.00000000E+00
  0.00000000E+00  0.00000000E+00  0.00000000E+00
  0.00000000E+00  0.00000000E+00  0.00000000E+00
  0.00000000E+00  0.00000000E+00  0.00000000E+00
  0.00000000E+00  0.00000000E+00  0.00000000E+00
  0.00000000E+00  0.00000000E+00  0.00000000E+00
  0.00000000E+00  0.00000000E+00  0.00000000E+00
  0.00000000E+00  0.00000000E+00  0.00000000E+00
  0.00000000E+00  0.00000000E+00  0.00000000E+00
  0.00000000E+00  0.00000000E+00  0.00000000E+00
  0.00000000E+00  0.00000000E+00  0.00000000E+00
  0.00000000E+00  0.00000000E+00  0.00000000E+00
  0.00000000E+00  0.00000000E+00  0.00000000E+00
  0.00000000E+00  0.00000000E+00  0.00000000E+00
  0.00000000E+00  0.00000000E+00  0.00000000E+00
  0.00000000E+00  0.00000000E+00  0.00000000E+00
  0.00000000E+00  0.00000000E+00  0.00000000E+00
  0.00000000E+00  0.00000000E+00  0.00000000E+00
  0.00000000E+00  0.00000000E+00  0.00000000E+00
  0.00000000E+00  0.00000000E+00  0.00000000E+00
  0.00000000E+00  0.00000000E+00  0.00000000E+00
  0.00000000E+00  0.00000000E+00  0.00000000E+00
  0.00000000E+00  0.00000000E+00  0.00000000E+00
  0.00000000E+00  0.00000000E+00  0.00000000E+00
  0.00000000E+00  0.00000000E+00  0.00000000E+00
  0.00000000E+00  0.00000000E+00  0.00000000E+00
  0.00000000E+00  0.00000000E+00  0.00000000E+00
