crystal structure from VMoWS2 with Hexag
   1.00000000000000     
     8.3294324664454553    4.8360719317228682    0.0000000000000000
    -8.3340439322835813    4.8444409690032977    0.0000000000000000
     0.0000000000000000    0.0000000000000000   30.0000000000000000
   V    Mo   W    S 
     3     3     3    18
Direct
  0.3459449250880194  0.7044469963851413  0.0026538119920756
 -0.0208654593072592  0.6271176483815157 -0.0017656717542405
  0.6587610053702426  0.0215447280668265  0.0002597183393558
  0.9689103315893778  0.3157891962873013 -0.0007239136626469
  0.3489607465164169  0.0254920414277839  0.0007090650662409
  0.6628938528602009  0.3293819572698162 -0.0002895754749652
  0.0315579981277270  0.0363100307597166  0.0019459673113169
  0.3466618183214789  0.3169939390242680  0.0000377678407220
  0.6523857858843454  0.6277242711058654 -0.0016892974739898
  0.1185738843941690  0.2311758536414273  0.9472531734472981
  0.2288335765126757  0.1170139476317989  0.0576530709168573
  0.1144811502386570  0.5576042145984472  0.9510685682762557
  0.2260664418710226  0.4518801282326801  0.0407135969940346
  0.1063855165474833  0.8814365070501751  0.9553098710683581
  0.2125978074836741  0.7775683667049136  0.0481530642396552
  0.4491231642437476  0.2235564954111830  0.9431004743798563
  0.5575465211219971  0.1098072762802651  0.0551212459986495
  0.4383550505674078  0.5555632467458220  0.9505164442616305
  0.5539547461156892  0.4371697915089919  0.0558060202482186
  0.4495009944477329  0.8957574891226352  0.9486312128339420
  0.5602338538238715  0.7820295895942442  0.0466719383337268
  0.7692932846604447  0.2130164301017662  0.9446531740654867
  0.8799175132164681  0.1050326131521878  0.0524100239097631
  0.7813228991651349  0.5497317138946733  0.9451768088699134
  0.8861911995874207  0.4412128463802396  0.0533292088134147
  0.7782006334940419  0.8885037190912536  0.9589598746080484
  0.8924252114947965  0.7753534156266334  0.0443342557510086
 
  0.00000000E+00  0.00000000E+00  0.00000000E+00
  0.00000000E+00  0.00000000E+00  0.00000000E+00
  0.00000000E+00  0.00000000E+00  0.00000000E+00
  0.00000000E+00  0.00000000E+00  0.00000000E+00
  0.00000000E+00  0.00000000E+00  0.00000000E+00
  0.00000000E+00  0.00000000E+00  0.00000000E+00
  0.00000000E+00  0.00000000E+00  0.00000000E+00
  0.00000000E+00  0.00000000E+00  0.00000000E+00
  0.00000000E+00  0.00000000E+00  0.00000000E+00
  0.00000000E+00  0.00000000E+00  0.00000000E+00
  0.00000000E+00  0.00000000E+00  0.00000000E+00
  0.00000000E+00  0.00000000E+00  0.00000000E+00
  0.00000000E+00  0.00000000E+00  0.00000000E+00
  0.00000000E+00  0.00000000E+00  0.00000000E+00
  0.00000000E+00  0.00000000E+00  0.00000000E+00
  0.00000000E+00  0.00000000E+00  0.00000000E+00
  0.00000000E+00  0.00000000E+00  0.00000000E+00
  0.00000000E+00  0.00000000E+00  0.00000000E+00
  0.00000000E+00  0.00000000E+00  0.00000000E+00
  0.00000000E+00  0.00000000E+00  0.00000000E+00
  0.00000000E+00  0.00000000E+00  0.00000000E+00
  0.00000000E+00  0.00000000E+00  0.00000000E+00
  0.00000000E+00  0.00000000E+00  0.00000000E+00
  0.00000000E+00  0.00000000E+00  0.00000000E+00
  0.00000000E+00  0.00000000E+00  0.00000000E+00
  0.00000000E+00  0.00000000E+00  0.00000000E+00
  0.00000000E+00  0.00000000E+00  0.00000000E+00
