crystal structure from VMoWS2 with Hexag
   1.00000000000000     
     8.3611444577221974    4.8503890225186863    0.0000000000000000
    -8.3405831575158018    4.8150837589372335    0.0000000000000000
     0.0000000000000000    0.0000000000000000   30.0000000000000000
   V    Mo   W    S 
     3     3     3    18
Direct
  0.6283374502072401  0.3137710802284731  0.0026199574526796
  0.3134953782214478  0.3099708160407136  0.0000119843758640
  0.7002549117107278  0.6836950087325295 -0.0017868889387760
  1.0169206550726431  0.3183298838935328 -0.0006480712729590
  0.3046894903501070 -0.0104251379204293  0.0008596398631431
  0.0042520902694290  0.0042485783663719 -0.0004279773888590
  0.0177448098592407  0.6949195933367422 -0.0003054076437860
  0.2956395563266136  0.6585086662064378  0.0025612282956230
  0.7101799442519828  0.0171137083693432 -0.0017461415174812
  0.1203337397914506  0.2221401912991340  0.9443069808523232
  0.2241865622728988  0.1165277537472029  0.0547615405375461
  0.1034194485904646  0.5535603052397546  0.9471422824521946
  0.2278903270124103  0.4425444372056316  0.0530442813619269
  0.1094182476395436  0.8910919084056657  0.9432389557006371
  0.2149566889386412  0.7799576743245611  0.0577915374079072
  0.4371348386781250  0.2205916405885497  0.9487497396936684
  0.5553177070609580  0.1041783764190868  0.0480701082323231
  0.4461089634567249  0.5582287494790737  0.9591190000772426
  0.5513532269884864  0.4474535394628223  0.0467185691128899
  0.4513947911444016  0.8914871488622412  0.9558520156666700
  0.5574036757901832  0.7786273679277319  0.0442481200655864
  0.7798269073433283  0.2293856392088855  0.9498477295425558
  0.8996374498957269  0.1145071778680362  0.0554722067852005
  0.7743679084662756  0.5510634404075939  0.9516111800600497
  0.8813861428254967  0.4405379141047431  0.0404946440785096
  0.7834510174255025  0.8874080275430606  0.9451577476405992
  0.8891125238469237  0.7787909641300835  0.0532349367067119
 
  0.00000000E+00  0.00000000E+00  0.00000000E+00
  0.00000000E+00  0.00000000E+00  0.00000000E+00
  0.00000000E+00  0.00000000E+00  0.00000000E+00
  0.00000000E+00  0.00000000E+00  0.00000000E+00
  0.00000000E+00  0.00000000E+00  0.00000000E+00
  0.00000000E+00  0.00000000E+00  0.00000000E+00
  0.00000000E+00  0.00000000E+00  0.00000000E+00
  0.00000000E+00  0.00000000E+00  0.00000000E+00
  0.00000000E+00  0.00000000E+00  0.00000000E+00
  0.00000000E+00  0.00000000E+00  0.00000000E+00
  0.00000000E+00  0.00000000E+00  0.00000000E+00
  0.00000000E+00  0.00000000E+00  0.00000000E+00
  0.00000000E+00  0.00000000E+00  0.00000000E+00
  0.00000000E+00  0.00000000E+00  0.00000000E+00
  0.00000000E+00  0.00000000E+00  0.00000000E+00
  0.00000000E+00  0.00000000E+00  0.00000000E+00
  0.00000000E+00  0.00000000E+00  0.00000000E+00
  0.00000000E+00  0.00000000E+00  0.00000000E+00
  0.00000000E+00  0.00000000E+00  0.00000000E+00
  0.00000000E+00  0.00000000E+00  0.00000000E+00
  0.00000000E+00  0.00000000E+00  0.00000000E+00
  0.00000000E+00  0.00000000E+00  0.00000000E+00
  0.00000000E+00  0.00000000E+00  0.00000000E+00
  0.00000000E+00  0.00000000E+00  0.00000000E+00
  0.00000000E+00  0.00000000E+00  0.00000000E+00
  0.00000000E+00  0.00000000E+00  0.00000000E+00
  0.00000000E+00  0.00000000E+00  0.00000000E+00
