crystal structure from VMoWS2 with Hexag
   1.00000000000000     
     8.3284827361377687    4.8396444881614329    0.0000000000000000
    -8.3073787071286525    4.8030377002229994    0.0000000000000000
     0.0000000000000000    0.0000000000000000   30.0000000000000000
   V    Mo   W    S 
     3     3     3    18
Direct
  0.3368263294133613  0.3245580234536607  0.0017797456322970
  0.3527088400315338  0.6860220239932885  0.0007278618077410
  0.3679445733777349  0.0173214112845889 -0.0011138660037958
  0.6776521080108039  0.0073117575928815 -0.0004024394979186
  0.6812373629720749  0.3348760958484050 -0.0005363638638930
  0.9669427348926244  0.3162921728907604  0.0010687240484413
 -0.0206628848839312  0.0138030230694789 -0.0001039533236249
 -0.0234447645969656  0.6311123689820092  0.0000005238666801
  0.6811733191087053  0.6779087360549535 -0.0007233355857869
  0.1094276278245388  0.2268618582109235  0.9498471056793057
  0.2243177439350668  0.1082648800756202  0.0472096518864936
  0.1110884932313725  0.5500983886866316  0.9509099404601699
  0.2209941567186831  0.4457390376581201  0.0446228778015278
  0.1125607648513223  0.8892977138456259  0.9592923678362623
  0.2257491458975642  0.7818313465159830  0.0462670899319295
  0.4423008830522441  0.2224610489481486  0.9488087905372911
  0.5542749157366701  0.1106748340723348  0.0530446542004527
  0.4417725372092390  0.5542320222910682  0.9517439531302369
  0.5530450561103766  0.4450207459941664  0.0488224845969917
  0.4432129475371881  0.8882245392306531  0.9479238146506048
  0.5552832639394502  0.7756454613312205  0.0508798689667267
  0.7715730160827424  0.2184649957863320  0.9435882692626967
  0.8834898563474307  0.1103487500540648  0.0573761234510884
  0.7747634464058367  0.5524893641480031  0.9452980910719312
  0.8838369387668684  0.4394623656279881  0.0574918677285175
  0.7764048492406440  0.8898457829282757  0.9448401611572972
  0.8937411922238012  0.7800457049023725  0.0513358897703209
 
  0.00000000E+00  0.00000000E+00  0.00000000E+00
  0.00000000E+00  0.00000000E+00  0.00000000E+00
  0.00000000E+00  0.00000000E+00  0.00000000E+00
  0.00000000E+00  0.00000000E+00  0.00000000E+00
  0.00000000E+00  0.00000000E+00  0.00000000E+00
  0.00000000E+00  0.00000000E+00  0.00000000E+00
  0.00000000E+00  0.00000000E+00  0.00000000E+00
  0.00000000E+00  0.00000000E+00  0.00000000E+00
  0.00000000E+00  0.00000000E+00  0.00000000E+00
  0.00000000E+00  0.00000000E+00  0.00000000E+00
  0.00000000E+00  0.00000000E+00  0.00000000E+00
  0.00000000E+00  0.00000000E+00  0.00000000E+00
  0.00000000E+00  0.00000000E+00  0.00000000E+00
  0.00000000E+00  0.00000000E+00  0.00000000E+00
  0.00000000E+00  0.00000000E+00  0.00000000E+00
  0.00000000E+00  0.00000000E+00  0.00000000E+00
  0.00000000E+00  0.00000000E+00  0.00000000E+00
  0.00000000E+00  0.00000000E+00  0.00000000E+00
  0.00000000E+00  0.00000000E+00  0.00000000E+00
  0.00000000E+00  0.00000000E+00  0.00000000E+00
  0.00000000E+00  0.00000000E+00  0.00000000E+00
  0.00000000E+00  0.00000000E+00  0.00000000E+00
  0.00000000E+00  0.00000000E+00  0.00000000E+00
  0.00000000E+00  0.00000000E+00  0.00000000E+00
  0.00000000E+00  0.00000000E+00  0.00000000E+00
  0.00000000E+00  0.00000000E+00  0.00000000E+00
  0.00000000E+00  0.00000000E+00  0.00000000E+00
