crystal structure from VMoWS2 with Hexag
   1.00000000000000     
     8.3566915353555498    4.8468704670691150    0.0000000000000000
    -8.3383414732950421    4.8148601755194385    0.0000000000000000
     0.0000000000000000    0.0000000000000000   30.0000000000000000
   V    Mo   W    S 
     3     3     3    18
Direct
  0.7013517628234478  0.0168138738603170 -0.0016755862406192
  1.0136855633090851  0.3216418736376408 -0.0002823906421748
  0.6625291567763707  0.3425049931793639  0.0024893890050246
 -0.0007315006945864  0.6873443879441478 -0.0003618394037631
  0.3064347856266679  0.3147928203345528  0.0007566209470463
  0.0079958164496296 -0.0059386863440642  0.0002895578886214
  0.3090802864416439  0.0105720281578336 -0.0008969472077279
  0.2971210338886932  0.6300207854893737  0.0007646586806528
  0.7067924549677016  0.6884164892475377 -0.0004504091063994
  0.1049218073777032  0.2171014300191224  0.9458633275699746
  0.2195408397437834  0.1111773718520082  0.0569769219611801
  0.0973523324392369  0.5414070614858608  0.9483271602061596
  0.2081641740218448  0.4322972815826158  0.0560141920611459
  0.1115707146859777  0.8898960409426121  0.9430424230147136
  0.2249011592707956  0.7808055345945450  0.0508942965545318
  0.4452142575288024  0.2258171624139928  0.9488614630003530
  0.5568588961024297  0.1115127654150595  0.0446303546909419
  0.4515319489657356  0.5580557218339876  0.9546420837222780
  0.5561709306080876  0.4508947776909406  0.0483896571075059
  0.4438878424916363  0.8874917553870345  0.9586492203550699
  0.5563480683479956  0.7784894985330907  0.0447309959047144
  0.7815454612630908  0.2242885562392235  0.9514169256016526
  0.8897293651751462  0.1142670972923327  0.0519765285508655
  0.7777857691664857  0.5509454985690481  0.9473053450308692
  0.8895163367716040  0.4413405523348716  0.0447318713493607
  0.7834110274795559  0.8924495394037523  0.9459629061781254
  0.8955041624084253  0.7838082423807630  0.0569511724198748
 
  0.00000000E+00  0.00000000E+00  0.00000000E+00
  0.00000000E+00  0.00000000E+00  0.00000000E+00
  0.00000000E+00  0.00000000E+00  0.00000000E+00
  0.00000000E+00  0.00000000E+00  0.00000000E+00
  0.00000000E+00  0.00000000E+00  0.00000000E+00
  0.00000000E+00  0.00000000E+00  0.00000000E+00
  0.00000000E+00  0.00000000E+00  0.00000000E+00
  0.00000000E+00  0.00000000E+00  0.00000000E+00
  0.00000000E+00  0.00000000E+00  0.00000000E+00
  0.00000000E+00  0.00000000E+00  0.00000000E+00
  0.00000000E+00  0.00000000E+00  0.00000000E+00
  0.00000000E+00  0.00000000E+00  0.00000000E+00
  0.00000000E+00  0.00000000E+00  0.00000000E+00
  0.00000000E+00  0.00000000E+00  0.00000000E+00
  0.00000000E+00  0.00000000E+00  0.00000000E+00
  0.00000000E+00  0.00000000E+00  0.00000000E+00
  0.00000000E+00  0.00000000E+00  0.00000000E+00
  0.00000000E+00  0.00000000E+00  0.00000000E+00
  0.00000000E+00  0.00000000E+00  0.00000000E+00
  0.00000000E+00  0.00000000E+00  0.00000000E+00
  0.00000000E+00  0.00000000E+00  0.00000000E+00
  0.00000000E+00  0.00000000E+00  0.00000000E+00
  0.00000000E+00  0.00000000E+00  0.00000000E+00
  0.00000000E+00  0.00000000E+00  0.00000000E+00
  0.00000000E+00  0.00000000E+00  0.00000000E+00
  0.00000000E+00  0.00000000E+00  0.00000000E+00
  0.00000000E+00  0.00000000E+00  0.00000000E+00
