crystal structure from VMoWS2 with Hexag
   1.00000000000000     
     8.2993714406223003    4.8151344025794689    0.0000000000000000
    -8.2770771864555783    4.7765405195618724    0.0000000000000000
     0.0000000000000000    0.0000000000000000   30.0000000000000000
   V    Mo   W    S 
     3     3     3    18
Direct
  0.3383735299360209  0.0044843033246768 -0.0000058828790660
  1.0012536254367530  0.3351952175578468 -0.0002775686042611
  0.0017088843655349  0.6675721348387982  0.0002553618854173
  0.6435843422667219  0.6504474038719029  0.0001273551691821
  0.6536656601942745  0.3305776431033725 -0.0001739271564506
  0.3517881706704672  0.6621761625596350 -0.0000518391998080
  0.0016803358216372 -0.0006951604076312  0.0003657494180658
  0.3516987668131208  0.3538928139618040 -0.0003204231578738
  0.6548243413159360 -0.0048240782924454 -0.0000243192924541
  0.1119851852979440  0.2267177476647080  0.9499787565092235
  0.2270060444926942  0.1136332339954867  0.0498435576231368
  0.1096911779100324  0.5551475664930360  0.9511139055789538
  0.2205561061995004  0.4423991677786796  0.0519092207391823
  0.1142542431303351  0.8869954661988725  0.9500908160730118
  0.2235247565989113  0.7781523742702997  0.0479257590988084
  0.4380424579520723  0.2169705615587382  0.9473845105364117
  0.5469588515172269  0.1063584369503525  0.0524492546018014
  0.4451725159152024  0.5540964923424755  0.9426018110355707
  0.5547778595487077  0.4433446031498952  0.0555406165959857
  0.4397789217083019  0.8899414713408152  0.9482213783414538
  0.5588310529858865  0.7793515009897412  0.0547156232441596
  0.7815331306094475  0.2244529414717192  0.9500703132621624
  0.8894537128339766  0.1173570171601025  0.0504175534065266
  0.7818310890410038  0.5582235221302603  0.9495700705616544
  0.8928789464465572  0.4462865894070335  0.0491765583034173
  0.7760862854958811  0.8869991461686815  0.9494019144392294
  0.8872744589328250  0.7729601738887228  0.0496937730665480
 
  0.00000000E+00  0.00000000E+00  0.00000000E+00
  0.00000000E+00  0.00000000E+00  0.00000000E+00
  0.00000000E+00  0.00000000E+00  0.00000000E+00
  0.00000000E+00  0.00000000E+00  0.00000000E+00
  0.00000000E+00  0.00000000E+00  0.00000000E+00
  0.00000000E+00  0.00000000E+00  0.00000000E+00
  0.00000000E+00  0.00000000E+00  0.00000000E+00
  0.00000000E+00  0.00000000E+00  0.00000000E+00
  0.00000000E+00  0.00000000E+00  0.00000000E+00
  0.00000000E+00  0.00000000E+00  0.00000000E+00
  0.00000000E+00  0.00000000E+00  0.00000000E+00
  0.00000000E+00  0.00000000E+00  0.00000000E+00
  0.00000000E+00  0.00000000E+00  0.00000000E+00
  0.00000000E+00  0.00000000E+00  0.00000000E+00
  0.00000000E+00  0.00000000E+00  0.00000000E+00
  0.00000000E+00  0.00000000E+00  0.00000000E+00
  0.00000000E+00  0.00000000E+00  0.00000000E+00
  0.00000000E+00  0.00000000E+00  0.00000000E+00
  0.00000000E+00  0.00000000E+00  0.00000000E+00
  0.00000000E+00  0.00000000E+00  0.00000000E+00
  0.00000000E+00  0.00000000E+00  0.00000000E+00
  0.00000000E+00  0.00000000E+00  0.00000000E+00
  0.00000000E+00  0.00000000E+00  0.00000000E+00
  0.00000000E+00  0.00000000E+00  0.00000000E+00
  0.00000000E+00  0.00000000E+00  0.00000000E+00
  0.00000000E+00  0.00000000E+00  0.00000000E+00
  0.00000000E+00  0.00000000E+00  0.00000000E+00
