crystal structure from VMoWS2 with Hexag
   1.00000000000000     
     8.3272863667063106    4.7828179184941337    0.0000000000000000
    -8.3266001469573858    4.7816845799772700    0.0000000000000000
     0.0000000000000000    0.0000000000000000   30.0000000000000000
   V    Mo   W    S 
     3     3     3    18
Direct
  0.3093826800220796  0.0098530551988618 -0.0023424160962208
  0.6860446404381092 -0.0137399237872055  0.0016737965420227
  1.0219277846575603  0.3178147298794103  0.0027350146827024
  0.3348412729943017  0.3360213669246180  0.0001623007157244
  0.0096796328048753  0.0029608029093024  0.0002142814638631
 -0.0237079794836110  0.6850340683162123 -0.0027960278067576
  0.3487604268801591  0.6449177396972997  0.0021907305134160
  0.6555169472228577  0.3575177940697860 -0.0018938914432438
  0.6622884242602505  0.6562190551183881  0.0001936765735306
  0.1106810172061721  0.2243023690252967  0.9471392386826337
  0.2254145712523490  0.1084942496223352  0.0535691371368172
  0.1078452132910807  0.5516146936450850  0.9564409750364817
  0.2201800809800385  0.4377146570231998  0.0564260475301539
  0.1124831282905345  0.8950136968692245  0.9434276716972617
  0.2210106779887628  0.7779396310923330  0.0435671843867704
  0.4408424540192980  0.2170771957105833  0.9456194627347939
  0.5530800054879679  0.1085195213759065  0.0418467199092898
  0.4456197255368177  0.5524383366161997  0.9447571178811977
  0.5539394252420575  0.4460480330547811  0.0558590462659047
  0.4450685603737251  0.8894324253177255  0.9572195490186445
  0.5597698188997124  0.7806276336122846  0.0547178143745721
  0.7824619749765256  0.2234894804824872  0.9572495915937060
  0.8908505905208068  0.1129121691965233  0.0537513267500483
  0.7719005585873695  0.5591571842815551  0.9416902041899192
  0.8915249623902384  0.4448130884668640  0.0444930927009343
  0.7772396492220603  0.8896867348618613  0.9479074082241180
  0.8835682093748830  0.7823346648966534  0.0541808459417033
 
  0.00000000E+00  0.00000000E+00  0.00000000E+00
  0.00000000E+00  0.00000000E+00  0.00000000E+00
  0.00000000E+00  0.00000000E+00  0.00000000E+00
  0.00000000E+00  0.00000000E+00  0.00000000E+00
  0.00000000E+00  0.00000000E+00  0.00000000E+00
  0.00000000E+00  0.00000000E+00  0.00000000E+00
  0.00000000E+00  0.00000000E+00  0.00000000E+00
  0.00000000E+00  0.00000000E+00  0.00000000E+00
  0.00000000E+00  0.00000000E+00  0.00000000E+00
  0.00000000E+00  0.00000000E+00  0.00000000E+00
  0.00000000E+00  0.00000000E+00  0.00000000E+00
  0.00000000E+00  0.00000000E+00  0.00000000E+00
  0.00000000E+00  0.00000000E+00  0.00000000E+00
  0.00000000E+00  0.00000000E+00  0.00000000E+00
  0.00000000E+00  0.00000000E+00  0.00000000E+00
  0.00000000E+00  0.00000000E+00  0.00000000E+00
  0.00000000E+00  0.00000000E+00  0.00000000E+00
  0.00000000E+00  0.00000000E+00  0.00000000E+00
  0.00000000E+00  0.00000000E+00  0.00000000E+00
  0.00000000E+00  0.00000000E+00  0.00000000E+00
  0.00000000E+00  0.00000000E+00  0.00000000E+00
  0.00000000E+00  0.00000000E+00  0.00000000E+00
  0.00000000E+00  0.00000000E+00  0.00000000E+00
  0.00000000E+00  0.00000000E+00  0.00000000E+00
  0.00000000E+00  0.00000000E+00  0.00000000E+00
  0.00000000E+00  0.00000000E+00  0.00000000E+00
  0.00000000E+00  0.00000000E+00  0.00000000E+00
