crystal structure from VMoWS2 with Hexag
   1.00000000000000     
     8.3365671221624336    4.8110590359985999    0.0000000000000000
    -8.3388993542780376    4.8150997490952685    0.0000000000000000
     0.0000000000000000    0.0000000000000000   30.0000000000000000
   V    Mo   W    S 
     3     3     3    18
Direct
  0.6677806708057979 -0.0304575651630777  0.0000716536161622
 -0.0174658465923860  0.6847141692942559 -0.0002320230943563
  0.3504618564324869  0.3685957510127206  0.0001045367938474
  0.6664785525054636  0.6725484497777361 -0.0000323787626344
  0.3484603153179399  0.6600963476450613  0.0004805668689557
 -0.0147889487959409 -0.0211570402870350 -0.0005183219366585
  1.0301858045603824  0.3273138977606811  0.0001445709219795
  0.3019390591227378 -0.0352569386747761  0.0000229327980534
  0.6663578956054296  0.3698367978964908 -0.0000177794782582
  0.1284449622738956  0.2224721513487467  0.9486626228929728
  0.2274789238525530  0.1178786075594616  0.0453377736675144
  0.1055104257780595  0.5565130784323954  0.9549527566690833
  0.2298241210477671  0.4424545720558418  0.0554601420645179
  0.1032848092208984  0.8789875526206420  0.9444568249497214
  0.2047395401571119  0.7607960613826742  0.0511822346703317
  0.4405899061171946  0.2238007326144715  0.9529143751743926
  0.5555948246489740  0.1092217352661763  0.0420692492297365
  0.4484849693914234  0.5569646061304794  0.9450280931833417
  0.5489333525582342  0.4502252399441216  0.0549520141196304
  0.4496414514306056  0.8897683456345770  0.9494884677982961
  0.5572912992391881  0.7822491160250787  0.0551790802630162
  0.7775891062339504  0.2203806031958075  0.9578288660802887
  0.8837707855657180  0.1064627175875370  0.0509275906975379
  0.7840728489035853  0.5675645260270863  0.9449927141140444
  0.8927617264921986  0.4496501459515028  0.0469035399024503
  0.7760404935002196  0.8914341876390396  0.9447652103903234
  0.8847515480634912  0.7751566047998754  0.0548745856057018
 
  0.00000000E+00  0.00000000E+00  0.00000000E+00
  0.00000000E+00  0.00000000E+00  0.00000000E+00
  0.00000000E+00  0.00000000E+00  0.00000000E+00
  0.00000000E+00  0.00000000E+00  0.00000000E+00
  0.00000000E+00  0.00000000E+00  0.00000000E+00
  0.00000000E+00  0.00000000E+00  0.00000000E+00
  0.00000000E+00  0.00000000E+00  0.00000000E+00
  0.00000000E+00  0.00000000E+00  0.00000000E+00
  0.00000000E+00  0.00000000E+00  0.00000000E+00
  0.00000000E+00  0.00000000E+00  0.00000000E+00
  0.00000000E+00  0.00000000E+00  0.00000000E+00
  0.00000000E+00  0.00000000E+00  0.00000000E+00
  0.00000000E+00  0.00000000E+00  0.00000000E+00
  0.00000000E+00  0.00000000E+00  0.00000000E+00
  0.00000000E+00  0.00000000E+00  0.00000000E+00
  0.00000000E+00  0.00000000E+00  0.00000000E+00
  0.00000000E+00  0.00000000E+00  0.00000000E+00
  0.00000000E+00  0.00000000E+00  0.00000000E+00
  0.00000000E+00  0.00000000E+00  0.00000000E+00
  0.00000000E+00  0.00000000E+00  0.00000000E+00
  0.00000000E+00  0.00000000E+00  0.00000000E+00
  0.00000000E+00  0.00000000E+00  0.00000000E+00
  0.00000000E+00  0.00000000E+00  0.00000000E+00
  0.00000000E+00  0.00000000E+00  0.00000000E+00
  0.00000000E+00  0.00000000E+00  0.00000000E+00
  0.00000000E+00  0.00000000E+00  0.00000000E+00
  0.00000000E+00  0.00000000E+00  0.00000000E+00
