crystal structure from VMoWS2 with Hexag
   1.00000000000000     
     8.3106948818573727    4.8450996535156552    0.0000000000000000
    -8.2859642987741289    4.8020237696396189    0.0000000000000000
     0.0000000000000000    0.0000000000000000   30.0000000000000000
   V    Mo   W    S 
     3     3     3    18
Direct
  0.3467249758269971  0.6701608956848314  0.0000779671226141
 -0.0050646069525119  0.0072078395551130 -0.0007365277449454
  0.9743819039289219  0.3196196857148071  0.0006372567558861
  0.6636996997915392  0.0176435496265920 -0.0001477444871415
  0.6471620339200561  0.3180331966042874  0.0003118882124912
  0.3618123692819941  0.3413602364545061 -0.0004591648342923
  0.0122141488290707  0.6718922731315682  0.0000922874436625
  0.3552805611268595  0.0193353525727076 -0.0004167216882790
  0.6454386506955512  0.6384895191789504  0.0004878629576140
  0.1097334479965995  0.2247672695369679  0.9529634172550281
  0.2208275801938987  0.1108999007882685  0.0499449225820231
  0.1129917745546903  0.5497209674923279  0.9513453821708280
  0.2175101589963689  0.4411093864913051  0.0450737114322404
  0.1119772515078843  0.8950897857861644  0.9509219494063001
  0.2306563936404549  0.7794416541450798  0.0496687454688536
  0.4453336069225268  0.2213016067888698  0.9431134687844829
  0.5543278808809797  0.1113173051921961  0.0563884783172398
  0.4417116482470878  0.5569947172899942  0.9462511793501024
  0.5592277839290132  0.4417898584499518  0.0569152601544827
  0.4410170626731577  0.8850650775991710  0.9477566110269334
  0.5532531932240836  0.7759433263154915  0.0502565783998310
  0.7788414786621347  0.2260362804432065  0.9463878363534854
  0.8898204565280565  0.1128764631247184  0.0512358081626823
  0.7775884921539368  0.5536808577956542  0.9493376841279340
  0.8885815473842580  0.4417703528132168  0.0506820993941636
  0.7748516279879097  0.8849605811682603  0.9527570134698546
  0.8883133315054912  0.7817065137333579  0.0491526496059380
 
  0.00000000E+00  0.00000000E+00  0.00000000E+00
  0.00000000E+00  0.00000000E+00  0.00000000E+00
  0.00000000E+00  0.00000000E+00  0.00000000E+00
  0.00000000E+00  0.00000000E+00  0.00000000E+00
  0.00000000E+00  0.00000000E+00  0.00000000E+00
  0.00000000E+00  0.00000000E+00  0.00000000E+00
  0.00000000E+00  0.00000000E+00  0.00000000E+00
  0.00000000E+00  0.00000000E+00  0.00000000E+00
  0.00000000E+00  0.00000000E+00  0.00000000E+00
  0.00000000E+00  0.00000000E+00  0.00000000E+00
  0.00000000E+00  0.00000000E+00  0.00000000E+00
  0.00000000E+00  0.00000000E+00  0.00000000E+00
  0.00000000E+00  0.00000000E+00  0.00000000E+00
  0.00000000E+00  0.00000000E+00  0.00000000E+00
  0.00000000E+00  0.00000000E+00  0.00000000E+00
  0.00000000E+00  0.00000000E+00  0.00000000E+00
  0.00000000E+00  0.00000000E+00  0.00000000E+00
  0.00000000E+00  0.00000000E+00  0.00000000E+00
  0.00000000E+00  0.00000000E+00  0.00000000E+00
  0.00000000E+00  0.00000000E+00  0.00000000E+00
  0.00000000E+00  0.00000000E+00  0.00000000E+00
  0.00000000E+00  0.00000000E+00  0.00000000E+00
  0.00000000E+00  0.00000000E+00  0.00000000E+00
  0.00000000E+00  0.00000000E+00  0.00000000E+00
  0.00000000E+00  0.00000000E+00  0.00000000E+00
  0.00000000E+00  0.00000000E+00  0.00000000E+00
  0.00000000E+00  0.00000000E+00  0.00000000E+00
