crystal structure from VMoWS2 with Hexag
   1.00000000000000     
     8.3646884862130246    4.8606602827701320    0.0000000000000000
    -8.3375968319452713    4.8135103648100008    0.0000000000000000
     0.0000000000000000    0.0000000000000000   30.0000000000000000
   V    Mo   W    S 
     3     3     3    18
Direct
  0.0164144248239413 -0.0121559394376595  0.0004530926092626
  0.6344342349296447 -0.0159573959649117  0.0019093537031882
  0.6889891921005653  0.6750328318802803 -0.0027238152244913
  0.3270591255057131  0.3065507343920282  0.0003088094892531
  0.3308874236218595  0.0042813649016011  0.0000463750716610
  0.0293474827024765  0.6821940135456729 -0.0006752996836104
  1.0365218314522848  0.3677467783228199 -0.0016812854936984
  0.3160408243031688  0.6789606713725360  0.0001772741967189
  0.6258515710263598  0.3090476152642150  0.0013644237105278
  0.1063910547261284  0.2148546254776207  0.9491236554293282
  0.2124478684787651  0.1033482558910890  0.0548116018527422
  0.1196643971723561  0.5658228062296218  0.9420244483394097
  0.2324690072609311  0.4525321192992630  0.0523638185219641
  0.1097214702377303  0.8917658377368479  0.9453889272937923
  0.2248690348822753  0.7850218485806977  0.0564842895344490
  0.4375633434463729  0.2165951176793158  0.9437832997800969
  0.5504576469070556  0.1052256284087325  0.0547222983058520
  0.4466667446636504  0.5586138166755247  0.9566432680132357
  0.5532831081267228  0.4472202803464329  0.0515834393537604
  0.4469533339761752  0.8918663589504880  0.9467212265909444
  0.5565838811016899  0.7769143080706868  0.0489768893316496
  0.7773175024702748  0.2209777039557370  0.9555923397792937
  0.8889930820265325  0.1119536305395293  0.0405320414559972
  0.7774701443105325  0.5487192350508658  0.9524381083043177
  0.8823999644353663  0.4412372643779597  0.0453773707344415
  0.7794088081686360  0.8918170348664366  0.9539708401691073
  0.8900079505797803  0.7780279070641360  0.0502831080308058
 
  0.00000000E+00  0.00000000E+00  0.00000000E+00
  0.00000000E+00  0.00000000E+00  0.00000000E+00
  0.00000000E+00  0.00000000E+00  0.00000000E+00
  0.00000000E+00  0.00000000E+00  0.00000000E+00
  0.00000000E+00  0.00000000E+00  0.00000000E+00
  0.00000000E+00  0.00000000E+00  0.00000000E+00
  0.00000000E+00  0.00000000E+00  0.00000000E+00
  0.00000000E+00  0.00000000E+00  0.00000000E+00
  0.00000000E+00  0.00000000E+00  0.00000000E+00
  0.00000000E+00  0.00000000E+00  0.00000000E+00
  0.00000000E+00  0.00000000E+00  0.00000000E+00
  0.00000000E+00  0.00000000E+00  0.00000000E+00
  0.00000000E+00  0.00000000E+00  0.00000000E+00
  0.00000000E+00  0.00000000E+00  0.00000000E+00
  0.00000000E+00  0.00000000E+00  0.00000000E+00
  0.00000000E+00  0.00000000E+00  0.00000000E+00
  0.00000000E+00  0.00000000E+00  0.00000000E+00
  0.00000000E+00  0.00000000E+00  0.00000000E+00
  0.00000000E+00  0.00000000E+00  0.00000000E+00
  0.00000000E+00  0.00000000E+00  0.00000000E+00
  0.00000000E+00  0.00000000E+00  0.00000000E+00
  0.00000000E+00  0.00000000E+00  0.00000000E+00
  0.00000000E+00  0.00000000E+00  0.00000000E+00
  0.00000000E+00  0.00000000E+00  0.00000000E+00
  0.00000000E+00  0.00000000E+00  0.00000000E+00
  0.00000000E+00  0.00000000E+00  0.00000000E+00
  0.00000000E+00  0.00000000E+00  0.00000000E+00
