crystal structure from VMoWS2 with Hexag
   1.00000000000000     
     8.2887688007326901    4.7877778921352441    0.0000000000000000
    -8.3088471886706241    4.8225422083019414    0.0000000000000000
     0.0000000000000000    0.0000000000000000   30.0000000000000000
   V    Mo   W    S 
     3     3     3    18
Direct
 -0.0168386456516670 -0.0348080185672445 -0.0019282968756143
  0.6483905432304767 -0.0347830431263184 -0.0019836832734889
  1.0162111762174335  0.3657127628756616  0.0017889069057819
  0.6606205954783669  0.6576745555270722 -0.0003208172477778
  0.3284258697499267  0.6668845816337646 -0.0001991807346617
  0.0065561748084828  0.6667886161839374 -0.0002087434137827
  0.3134522784618111 -0.0400258390015229 -0.0021137436010517
  0.3547434115512876  0.3723187122691441  0.0024122195717046
  0.6842400388743557  0.3726051188792129  0.0024434666298587
  0.1100046428964922  0.2222668873572106  0.9573047429378371
  0.2205145963693113  0.1102644962957239  0.0435827874926163
  0.1088521533270738  0.5508168715884579  0.9458806165979814
  0.2185627900690919  0.4453613264122262  0.0552690759761160
  0.1065763221110600  0.8857678034334212  0.9443771601993444
  0.2197853448794589  0.7726949206496356  0.0554883216500401
  0.4440409636098587  0.2213492521302978  0.9557114445337663
  0.5564799452162881  0.1103366907322932  0.0436182766643259
  0.4456919691571104  0.5604114230611913  0.9450013395252534
  0.5593719128077173  0.4524401737961117  0.0581324442386287
  0.4460083903285947  0.8858493495544147  0.9443179792951208
  0.5563701803732157  0.7801787031777506  0.0525943885715464
  0.7788486592100582  0.2223047344382028  0.9573715161140610
  0.8879571506712091  0.1094615407128162  0.0418353784448665
  0.7814285344035456  0.5609699083474836  0.9452666364153404
  0.8935637355487285  0.4455458349552596  0.0552644246610178
  0.7781648554357702  0.8900123148839350  0.9467364076992849
  0.8901908643019187  0.7798147752774338  0.0523568302218760
 
  0.00000000E+00  0.00000000E+00  0.00000000E+00
  0.00000000E+00  0.00000000E+00  0.00000000E+00
  0.00000000E+00  0.00000000E+00  0.00000000E+00
  0.00000000E+00  0.00000000E+00  0.00000000E+00
  0.00000000E+00  0.00000000E+00  0.00000000E+00
  0.00000000E+00  0.00000000E+00  0.00000000E+00
  0.00000000E+00  0.00000000E+00  0.00000000E+00
  0.00000000E+00  0.00000000E+00  0.00000000E+00
  0.00000000E+00  0.00000000E+00  0.00000000E+00
  0.00000000E+00  0.00000000E+00  0.00000000E+00
  0.00000000E+00  0.00000000E+00  0.00000000E+00
  0.00000000E+00  0.00000000E+00  0.00000000E+00
  0.00000000E+00  0.00000000E+00  0.00000000E+00
  0.00000000E+00  0.00000000E+00  0.00000000E+00
  0.00000000E+00  0.00000000E+00  0.00000000E+00
  0.00000000E+00  0.00000000E+00  0.00000000E+00
  0.00000000E+00  0.00000000E+00  0.00000000E+00
  0.00000000E+00  0.00000000E+00  0.00000000E+00
  0.00000000E+00  0.00000000E+00  0.00000000E+00
  0.00000000E+00  0.00000000E+00  0.00000000E+00
  0.00000000E+00  0.00000000E+00  0.00000000E+00
  0.00000000E+00  0.00000000E+00  0.00000000E+00
  0.00000000E+00  0.00000000E+00  0.00000000E+00
  0.00000000E+00  0.00000000E+00  0.00000000E+00
  0.00000000E+00  0.00000000E+00  0.00000000E+00
  0.00000000E+00  0.00000000E+00  0.00000000E+00
  0.00000000E+00  0.00000000E+00  0.00000000E+00
