crystal structure from VMoWS2 with Hexag
   1.00000000000000     
     8.3858775577472588    4.8295147286484861    0.0000000000000000
    -8.3945077191083222    4.8443046130198368    0.0000000000000000
     0.0000000000000000    0.0000000000000000   30.0000000000000000
   V    Mo   W    S 
     3     3     3    18
Direct
 -0.0182994368880620  0.0187279693278751 -0.0006241545194876
  0.6659644941307044  0.6919550220159203 -0.0003832369970716
  0.3485156477311519  0.7004049718838435  0.0006438316864428
  0.6683075376823517  0.0077353969957022 -0.0000060194943191
  0.6682216209515478  0.3132607246327494  0.0000101609728032
  0.9669004862436480  0.3200364382759286  0.0001857354891539
 -0.0226328037111464  0.6269539228831559 -0.0015870018253858
  0.3658245982796833  0.0183049417000760  0.0000373224937279
  0.3560436024925287  0.3159097460924251  0.0018046694957318
  0.1137108961616518  0.2235052016944074  0.9516646051172943
  0.2179598939700078  0.1024574645938143  0.0498871766641694
  0.1145817021284355  0.5522984931712720  0.9499740888615261
  0.2266486074407346  0.4459324848216897  0.0405058557827213
  0.1075978578556109  0.8877243117354053  0.9597759726998235
  0.2198290500683821  0.7762784070036064  0.0487108595392877
  0.4499609045118234  0.2192380998517993  0.9440924631470300
  0.5594185225295960  0.1092310517886828  0.0569205243114214
  0.4445787841319144  0.5596272092846173  0.9538454279769527
  0.5684157447721455  0.4540570015805618  0.0491707419436665
  0.4445867558635034  0.8872701052804925  0.9458572515366369
  0.5516201824825978  0.7763758657549281  0.0511481522792368
  0.7740708077913681  0.2164399438813770  0.9431577062597493
  0.8879697080513020  0.1098623511270161  0.0544707634599070
  0.7658823528677601  0.5517774338491795  0.9505368736059653
  0.8835839027148804  0.4380807358352480  0.0562326898541326
  0.7813965088606216  0.8922438953722969  0.9482256098749733
  0.8875565243222401  0.7825252630434992  0.0457418289838991
 
  0.00000000E+00  0.00000000E+00  0.00000000E+00
  0.00000000E+00  0.00000000E+00  0.00000000E+00
  0.00000000E+00  0.00000000E+00  0.00000000E+00
  0.00000000E+00  0.00000000E+00  0.00000000E+00
  0.00000000E+00  0.00000000E+00  0.00000000E+00
  0.00000000E+00  0.00000000E+00  0.00000000E+00
  0.00000000E+00  0.00000000E+00  0.00000000E+00
  0.00000000E+00  0.00000000E+00  0.00000000E+00
  0.00000000E+00  0.00000000E+00  0.00000000E+00
  0.00000000E+00  0.00000000E+00  0.00000000E+00
  0.00000000E+00  0.00000000E+00  0.00000000E+00
  0.00000000E+00  0.00000000E+00  0.00000000E+00
  0.00000000E+00  0.00000000E+00  0.00000000E+00
  0.00000000E+00  0.00000000E+00  0.00000000E+00
  0.00000000E+00  0.00000000E+00  0.00000000E+00
  0.00000000E+00  0.00000000E+00  0.00000000E+00
  0.00000000E+00  0.00000000E+00  0.00000000E+00
  0.00000000E+00  0.00000000E+00  0.00000000E+00
  0.00000000E+00  0.00000000E+00  0.00000000E+00
  0.00000000E+00  0.00000000E+00  0.00000000E+00
  0.00000000E+00  0.00000000E+00  0.00000000E+00
  0.00000000E+00  0.00000000E+00  0.00000000E+00
  0.00000000E+00  0.00000000E+00  0.00000000E+00
  0.00000000E+00  0.00000000E+00  0.00000000E+00
  0.00000000E+00  0.00000000E+00  0.00000000E+00
  0.00000000E+00  0.00000000E+00  0.00000000E+00
  0.00000000E+00  0.00000000E+00  0.00000000E+00
