crystal structure from VMoWS2 with Hexag
   1.00000000000000     
     8.3060687014291990    4.8216969454172736    0.0000000000000000
    -8.2843173804222285    4.7840490579132222    0.0000000000000000
     0.0000000000000000    0.0000000000000000   30.0000000000000000
   V    Mo   W    S 
     3     3     3    18
Direct
  0.7010411746881734  0.0165966805915153 -0.0017988146571245
  0.7009633656855767  0.3510159290651699 -0.0018101838836923
  0.3013786439925319 -0.0160643651501043  0.0016213081214310
  1.0088988060132957  0.3381894595026954 -0.0003508207649807
 -0.0003145691826158 -0.0062032005222643 -0.0001888713754857
 -0.0002683031672300  0.6720685776188626 -0.0001865766326141
  0.2940959668498471  0.3159184315313053  0.0023307016434255
  0.2941650259923531  0.6448686998493647  0.0023240835411626
  0.7065019710919143  0.6865443499585213 -0.0020346684200784
  0.1055546915426611  0.2183425205514867  0.9451023343187452
  0.2213516036548627  0.1064337168562471  0.0551286209338549
  0.1057079934082363  0.5539484480279098  0.9450285321744236
  0.2139900492104390  0.4403536879160465  0.0580927279760603
  0.1156242568433921  0.8910633264405862  0.9458385483962248
  0.2213751060701163  0.7815147869050618  0.0551391891292729
  0.4443502759473772  0.2211891672109132  0.9572086528966687
  0.5570578198746220  0.1118110622426432  0.0420620503984826
  0.4454592278063891  0.5560223923708751  0.9555927511603862
  0.5559786829115965  0.4433866090612569  0.0436772772417278
  0.4444115363882852  0.8897923003535899  0.9571914531340678
  0.5560092804863022  0.7792222995235643  0.0436677895263472
  0.7763043623816098  0.2214657312651311  0.9468316820802941
  0.8867618304697535  0.1097199003592831  0.0524903583391173
  0.7805591290381606  0.5537258382680521  0.9444541801481059
  0.8866683141023375  0.4436227343612187  0.0525580636722685
  0.7805859931446913  0.8934095102840586  0.9444550487042795
  0.8940022181923000  0.7802558590345825  0.0555744813976209
 
  0.00000000E+00  0.00000000E+00  0.00000000E+00
  0.00000000E+00  0.00000000E+00  0.00000000E+00
  0.00000000E+00  0.00000000E+00  0.00000000E+00
  0.00000000E+00  0.00000000E+00  0.00000000E+00
  0.00000000E+00  0.00000000E+00  0.00000000E+00
  0.00000000E+00  0.00000000E+00  0.00000000E+00
  0.00000000E+00  0.00000000E+00  0.00000000E+00
  0.00000000E+00  0.00000000E+00  0.00000000E+00
  0.00000000E+00  0.00000000E+00  0.00000000E+00
  0.00000000E+00  0.00000000E+00  0.00000000E+00
  0.00000000E+00  0.00000000E+00  0.00000000E+00
  0.00000000E+00  0.00000000E+00  0.00000000E+00
  0.00000000E+00  0.00000000E+00  0.00000000E+00
  0.00000000E+00  0.00000000E+00  0.00000000E+00
  0.00000000E+00  0.00000000E+00  0.00000000E+00
  0.00000000E+00  0.00000000E+00  0.00000000E+00
  0.00000000E+00  0.00000000E+00  0.00000000E+00
  0.00000000E+00  0.00000000E+00  0.00000000E+00
  0.00000000E+00  0.00000000E+00  0.00000000E+00
  0.00000000E+00  0.00000000E+00  0.00000000E+00
  0.00000000E+00  0.00000000E+00  0.00000000E+00
  0.00000000E+00  0.00000000E+00  0.00000000E+00
  0.00000000E+00  0.00000000E+00  0.00000000E+00
  0.00000000E+00  0.00000000E+00  0.00000000E+00
  0.00000000E+00  0.00000000E+00  0.00000000E+00
  0.00000000E+00  0.00000000E+00  0.00000000E+00
  0.00000000E+00  0.00000000E+00  0.00000000E+00
