crystal structure from VMoWS2 with Hexag
   1.00000000000000     
     8.3740344573242567    4.8553966535179223    0.0000000000000000
    -8.3456168022929518    4.8064808008313813    0.0000000000000000
     0.0000000000000000    0.0000000000000000   30.0000000000000000
   V    Mo   W    S 
     3     3     3    18
Direct
  0.3718948230515372  0.3550730982359050 -0.0030630099645775
  0.2939780476082840  0.6476254902250167  0.0020526628185084
  0.2973121013540391 -0.0220111285753398  0.0017836898007637
  0.6929663880286174  0.6750033629849881 -0.0009136174110334
 -0.0116751798180400  0.6586784464082174  0.0006254707489089
  0.9786307875178549  0.3445606718055280  0.0008914143718820
 -0.0175373515480015 -0.0285449126229705  0.0002606266936635
  0.7015083712665897  0.0021821224802526 -0.0019488708130609
  0.6894914434724380  0.3633746255532099 -0.0002767325317263
  0.1179865520039207  0.2266325939449141  0.9593857751394940
  0.2258592912026073  0.1157778918826439  0.0477252047851957
  0.1071494696192850  0.5542406121438745  0.9471991353609156
  0.2222327065031588  0.4412515762973857  0.0484424289332222
  0.1101684484212964  0.8862990996606074  0.9468598269920282
  0.2188579619892425  0.7750753924909787  0.0527827911315192
  0.4450323973442714  0.2186868117634076  0.9522191511655761
  0.5530050823166509  0.1079888814555003  0.0408709421590125
  0.4441693053571863  0.5649526072617640  0.9522290706882902
  0.5590058544336416  0.4493107901918638  0.0523570408112819
  0.4402793132027974  0.8844232448270641  0.9568651472739291
  0.5483131248904382  0.7744751778595553  0.0446417363279464
  0.7719766313871139  0.2218094799140592  0.9465151066626725
  0.8962577094743400  0.1118747435633062  0.0531375369322760
  0.7804582162898279  0.5581603318335070  0.9427523934510202
  0.8852171900905030  0.4475358600664810  0.0574190356878391
  0.7842043973600713  0.8876340223914364  0.9422939457313955
  0.8914713706173127  0.7761435594344231  0.0568919962530396
 
  0.00000000E+00  0.00000000E+00  0.00000000E+00
  0.00000000E+00  0.00000000E+00  0.00000000E+00
  0.00000000E+00  0.00000000E+00  0.00000000E+00
  0.00000000E+00  0.00000000E+00  0.00000000E+00
  0.00000000E+00  0.00000000E+00  0.00000000E+00
  0.00000000E+00  0.00000000E+00  0.00000000E+00
  0.00000000E+00  0.00000000E+00  0.00000000E+00
  0.00000000E+00  0.00000000E+00  0.00000000E+00
  0.00000000E+00  0.00000000E+00  0.00000000E+00
  0.00000000E+00  0.00000000E+00  0.00000000E+00
  0.00000000E+00  0.00000000E+00  0.00000000E+00
  0.00000000E+00  0.00000000E+00  0.00000000E+00
  0.00000000E+00  0.00000000E+00  0.00000000E+00
  0.00000000E+00  0.00000000E+00  0.00000000E+00
  0.00000000E+00  0.00000000E+00  0.00000000E+00
  0.00000000E+00  0.00000000E+00  0.00000000E+00
  0.00000000E+00  0.00000000E+00  0.00000000E+00
  0.00000000E+00  0.00000000E+00  0.00000000E+00
  0.00000000E+00  0.00000000E+00  0.00000000E+00
  0.00000000E+00  0.00000000E+00  0.00000000E+00
  0.00000000E+00  0.00000000E+00  0.00000000E+00
  0.00000000E+00  0.00000000E+00  0.00000000E+00
  0.00000000E+00  0.00000000E+00  0.00000000E+00
  0.00000000E+00  0.00000000E+00  0.00000000E+00
  0.00000000E+00  0.00000000E+00  0.00000000E+00
  0.00000000E+00  0.00000000E+00  0.00000000E+00
  0.00000000E+00  0.00000000E+00  0.00000000E+00
