crystal structure from VMoWS2 with Hexag
   1.00000000000000     
     8.2702390631040839    4.7732611927135489    0.0000000000000000
    -8.2959516918303837    4.8177613411533313    0.0000000000000000
     0.0000000000000000    0.0000000000000000   30.0000000000000000
   V    Mo   W    S 
     3     3     3    18
Direct
  0.6685267697112293  0.0076471859979632  0.0000996134959420
  0.0023781456969309  0.6662511256518530  0.0003254007298434
  0.3326859313544072  0.6640418976310895 -0.0002545787533035
  1.0003410795138363  0.3213183979358836  0.0000905812020983
  0.3324459071495913  0.0207956739710690  0.0002347072936534
  0.3154587104272470  0.3113829112130032 -0.0001730523735654
  0.0215862004328060  0.0195009207667778  0.0003261782950581
  0.6602068073002060  0.3187468286146648 -0.0001721215522305
  0.6652857485346162  0.6685739745823988 -0.0003335003561228
  0.1096486036409448  0.2208208336737973  0.9440483929003767
  0.2211375924018527  0.1123136285779355  0.0573883351702526
  0.1134437760894929  0.5591100882420941  0.9504665769706944
  0.2246137882296239  0.4481793469323572  0.0510362007978980
  0.1098188689266203  0.8874425042962081  0.9485042856932800
  0.2222292133938395  0.7763715594622006  0.0486387725891352
  0.4455761377772244  0.2261913214157247  0.9452068149742371
  0.5568579220192981  0.1070897108197993  0.0526221499783247
  0.4396425638693925  0.5541808502308804  0.9498711117969039
  0.5534499598614838  0.4424525184484362  0.0503556795125663
  0.4444340408366440  0.8898955321715493  0.9522309734117773
  0.5533082751839479  0.7812298264642783  0.0498006847853539
  0.7735353969973597  0.2141576365670815  0.9474685718264166
  0.8838272564772585  0.1049241204194876  0.0524747504595385
  0.7836683193198541  0.5557097752159570  0.9498259132268609
  0.8905407567335563  0.4469148655245364  0.0496860961990186
  0.7799145761568788  0.8943010713799293  0.9505955685860153
  0.8936521054008506  0.7786703472706145  0.0496357923399355
 
  0.00000000E+00  0.00000000E+00  0.00000000E+00
  0.00000000E+00  0.00000000E+00  0.00000000E+00
  0.00000000E+00  0.00000000E+00  0.00000000E+00
  0.00000000E+00  0.00000000E+00  0.00000000E+00
  0.00000000E+00  0.00000000E+00  0.00000000E+00
  0.00000000E+00  0.00000000E+00  0.00000000E+00
  0.00000000E+00  0.00000000E+00  0.00000000E+00
  0.00000000E+00  0.00000000E+00  0.00000000E+00
  0.00000000E+00  0.00000000E+00  0.00000000E+00
  0.00000000E+00  0.00000000E+00  0.00000000E+00
  0.00000000E+00  0.00000000E+00  0.00000000E+00
  0.00000000E+00  0.00000000E+00  0.00000000E+00
  0.00000000E+00  0.00000000E+00  0.00000000E+00
  0.00000000E+00  0.00000000E+00  0.00000000E+00
  0.00000000E+00  0.00000000E+00  0.00000000E+00
  0.00000000E+00  0.00000000E+00  0.00000000E+00
  0.00000000E+00  0.00000000E+00  0.00000000E+00
  0.00000000E+00  0.00000000E+00  0.00000000E+00
  0.00000000E+00  0.00000000E+00  0.00000000E+00
  0.00000000E+00  0.00000000E+00  0.00000000E+00
  0.00000000E+00  0.00000000E+00  0.00000000E+00
  0.00000000E+00  0.00000000E+00  0.00000000E+00
  0.00000000E+00  0.00000000E+00  0.00000000E+00
  0.00000000E+00  0.00000000E+00  0.00000000E+00
  0.00000000E+00  0.00000000E+00  0.00000000E+00
  0.00000000E+00  0.00000000E+00  0.00000000E+00
  0.00000000E+00  0.00000000E+00  0.00000000E+00
