crystal structure from VMoWS2 with Hexag
   1.00000000000000     
     8.3320163580874933    4.7449162484284892    0.0000000000000000
    -8.3937947164926783    4.8519176296264090    0.0000000000000000
     0.0000000000000000    0.0000000000000000   30.0000000000000000
   V    Mo   W    S 
     3     3     3    18
Direct
  0.3330007039257676  0.3194058059356961 -0.0000972426874968
  0.6805178435628360  0.6537067554280941  0.0005991821902842
  0.9853707543959253  0.3053658705385626 -0.0006959009635176
  0.3335788275612738  0.6964432263653479  0.0001384947487825
  0.6864242061086859  0.3606774824517128  0.0001411047630144
 -0.0169816747446327  0.0069463440138840 -0.0000149426943675
  0.0058921192919113  0.6714554951364758  0.0001174356503927
  0.3301896396506969 -0.0229102900762215 -0.0000778667167191
  0.6611901116191476 -0.0025094214630519 -0.0000962475706825
  0.1119079114380150  0.2241026644851468  0.9489258233463097
  0.2203619899921916  0.1100652309766365  0.0496338958139483
  0.1087810921778612  0.5490547426017127  0.9508100289023473
  0.2223757834622153  0.4434201343053841  0.0443198075108950
  0.1108153187587941  0.8937609098817912  0.9488253780641334
  0.2199621183491646  0.7809743236114021  0.0567375087500586
  0.4466829339832818  0.2224405456288511  0.9508592111196105
  0.5545424721015920  0.1167911286142100  0.0500641215025903
  0.4440292369937672  0.5543984889268049  0.9556374944015459
  0.5547652965538570  0.4459070732677475  0.0510636302181822
  0.4460844654549535  0.8945207079174217  0.9435674700981607
  0.5583765524699452  0.7742930603855249  0.0495348879298107
  0.7828056632118979  0.2248041927576850  0.9480324989283397
  0.8833895405482355  0.1137805286114912  0.0536775185046941
  0.7834646768927920  0.5645483533984010  0.9461116592714371
  0.9001212493788080  0.4440429246497439  0.0510410075498424
  0.7670087087117970  0.8777148995073348  0.9491003917174988
  0.8835569115862026  0.7750132756198088  0.0520435488508853
 
  0.00000000E+00  0.00000000E+00  0.00000000E+00
  0.00000000E+00  0.00000000E+00  0.00000000E+00
  0.00000000E+00  0.00000000E+00  0.00000000E+00
  0.00000000E+00  0.00000000E+00  0.00000000E+00
  0.00000000E+00  0.00000000E+00  0.00000000E+00
  0.00000000E+00  0.00000000E+00  0.00000000E+00
  0.00000000E+00  0.00000000E+00  0.00000000E+00
  0.00000000E+00  0.00000000E+00  0.00000000E+00
  0.00000000E+00  0.00000000E+00  0.00000000E+00
  0.00000000E+00  0.00000000E+00  0.00000000E+00
  0.00000000E+00  0.00000000E+00  0.00000000E+00
  0.00000000E+00  0.00000000E+00  0.00000000E+00
  0.00000000E+00  0.00000000E+00  0.00000000E+00
  0.00000000E+00  0.00000000E+00  0.00000000E+00
  0.00000000E+00  0.00000000E+00  0.00000000E+00
  0.00000000E+00  0.00000000E+00  0.00000000E+00
  0.00000000E+00  0.00000000E+00  0.00000000E+00
  0.00000000E+00  0.00000000E+00  0.00000000E+00
  0.00000000E+00  0.00000000E+00  0.00000000E+00
  0.00000000E+00  0.00000000E+00  0.00000000E+00
  0.00000000E+00  0.00000000E+00  0.00000000E+00
  0.00000000E+00  0.00000000E+00  0.00000000E+00
  0.00000000E+00  0.00000000E+00  0.00000000E+00
  0.00000000E+00  0.00000000E+00  0.00000000E+00
  0.00000000E+00  0.00000000E+00  0.00000000E+00
  0.00000000E+00  0.00000000E+00  0.00000000E+00
  0.00000000E+00  0.00000000E+00  0.00000000E+00
