crystal structure from VMoWS2 with Hexag
   1.00000000000000     
     8.3618924123272169    4.8373062085659786    0.0000000000000000
    -8.3403196023685471    4.8000016578117446    0.0000000000000000
     0.0000000000000000    0.0000000000000000   30.0000000000000000
   V    Mo   W    S 
     3     3     3    18
Direct
  0.7012416785613333  0.6829234220764147 -0.0012117847253528
  0.6939246815742824  0.3423661120546842 -0.0002148412984228
  0.3386719216427637 -0.0296452420045356  0.0011720549700796
  0.2984245439877035  0.6472511005450329  0.0002046435550378
  0.0091151119651378  0.6491165515443661  0.0005878635215438
  1.0011842352769327  0.3359057442663021  0.0001185117417296
 -0.0156542068887371  0.0201025472264484 -0.0004857315705746
  0.3002718807869476  0.3361667361945028 -0.0003542013192340
  0.6892571510923545  0.0138252584534540  0.0001806020517774
  0.1033019916603848  0.2224949876383760  0.9433058556135746
  0.2221548862760233  0.1090114466974623  0.0473719240545589
  0.1037761606885211  0.5482552205144930  0.9433447808153689
  0.2145405544349857  0.4443289111081351  0.0567364272714481
  0.1146530438050663  0.8953185817168565  0.9559982659575694
  0.2229730649956857  0.7771884617706332  0.0555228050029648
  0.4430494387058336  0.2199419776720687  0.9589716731689208
  0.5570819491435393  0.1144397592483548  0.0492443507018300
  0.4481022225222090  0.5586021259633798  0.9518204377942421
  0.5563531241362909  0.4474487982015707  0.0428074846991128
  0.4440878574505873  0.8822609624163951  0.9500506288965360
  0.5541214854712567  0.7707049959459308  0.0434443303920192
  0.7720870568398013  0.2229833160718661  0.9464811372848490
  0.8878077066526991  0.1175994533202875  0.0565494623622047
  0.7799502155512882  0.5539969197159901  0.9486184179016178
  0.8839840400850012  0.4431848302830643  0.0548030318126040
  0.7767772399151965  0.8871301990546375  0.9455149777521256
  0.8969754171038896  0.7853112757814020  0.0494167907918626
 
  0.00000000E+00  0.00000000E+00  0.00000000E+00
  0.00000000E+00  0.00000000E+00  0.00000000E+00
  0.00000000E+00  0.00000000E+00  0.00000000E+00
  0.00000000E+00  0.00000000E+00  0.00000000E+00
  0.00000000E+00  0.00000000E+00  0.00000000E+00
  0.00000000E+00  0.00000000E+00  0.00000000E+00
  0.00000000E+00  0.00000000E+00  0.00000000E+00
  0.00000000E+00  0.00000000E+00  0.00000000E+00
  0.00000000E+00  0.00000000E+00  0.00000000E+00
  0.00000000E+00  0.00000000E+00  0.00000000E+00
  0.00000000E+00  0.00000000E+00  0.00000000E+00
  0.00000000E+00  0.00000000E+00  0.00000000E+00
  0.00000000E+00  0.00000000E+00  0.00000000E+00
  0.00000000E+00  0.00000000E+00  0.00000000E+00
  0.00000000E+00  0.00000000E+00  0.00000000E+00
  0.00000000E+00  0.00000000E+00  0.00000000E+00
  0.00000000E+00  0.00000000E+00  0.00000000E+00
  0.00000000E+00  0.00000000E+00  0.00000000E+00
  0.00000000E+00  0.00000000E+00  0.00000000E+00
  0.00000000E+00  0.00000000E+00  0.00000000E+00
  0.00000000E+00  0.00000000E+00  0.00000000E+00
  0.00000000E+00  0.00000000E+00  0.00000000E+00
  0.00000000E+00  0.00000000E+00  0.00000000E+00
  0.00000000E+00  0.00000000E+00  0.00000000E+00
  0.00000000E+00  0.00000000E+00  0.00000000E+00
  0.00000000E+00  0.00000000E+00  0.00000000E+00
  0.00000000E+00  0.00000000E+00  0.00000000E+00
