crystal structure from VMoWS2 with Hexag
   1.00000000000000     
     8.3322458931241972    4.8301226076735055    0.0000000000000000
    -8.3061981048633431    4.7849462792532700    0.0000000000000000
     0.0000000000000000    0.0000000000000000   30.0000000000000000
   V    Mo   W    S 
     3     3     3    18
Direct
  0.7050411589761673  0.0238909816306968 -0.0024906196076234
  0.2962064764516385  0.3104280655944124  0.0028179424560144
  0.6978871070196397  0.6766727661267571 -0.0011389389679012
  0.7044004231325699  0.3546090114133416 -0.0017829554967469
  0.0028380099161207  0.6677354276944545 -0.0002499318690472
  0.0054180440663734 -0.0173735518970109 -0.0001519663628210
  0.9977570689912936  0.3517409243334071 -0.0000560322569711
  0.2970468978734548 -0.0203989180365634  0.0016617033018683
  0.2991046294912497  0.6538422450415220  0.0012360352991011
  0.1071726496517436  0.2197352677172727  0.9499706786670662
  0.2184444262734281  0.1090736562581360  0.0559621673801397
  0.1067797950954394  0.5552318243863434  0.9434308674690201
  0.2195145374460335  0.4415840298303108  0.0544520004032505
  0.1080627568452397  0.8845034943596978  0.9434688618219309
  0.2192412271682332  0.7770360555137761  0.0570642991092518
  0.4428423237504907  0.2244152966677995  0.9570130117281741
  0.5562349121526767  0.1084721687015335  0.0432701140478028
  0.4435533779771050  0.5511427959151932  0.9580152203932467
  0.5528607146138774  0.4446081530564305  0.0443533204932400
  0.4482084448785488  0.8923198032455733  0.9547236066568445
  0.5581682367255655  0.7811825093133881  0.0419603083618083
  0.7839641363020620  0.2238144217372448  0.9442040269747568
  0.8937491970093311  0.1141382756757705  0.0498907619342630
  0.7782300711380056  0.5611888112569510  0.9447490494670380
  0.8943849923877857  0.4500489943390227  0.0560519210188155
  0.7760750526411533  0.8851986610279253  0.9474182674627262
  0.8850277854618819  0.7733732825742820  0.0541561793147401
 
  0.00000000E+00  0.00000000E+00  0.00000000E+00
  0.00000000E+00  0.00000000E+00  0.00000000E+00
  0.00000000E+00  0.00000000E+00  0.00000000E+00
  0.00000000E+00  0.00000000E+00  0.00000000E+00
  0.00000000E+00  0.00000000E+00  0.00000000E+00
  0.00000000E+00  0.00000000E+00  0.00000000E+00
  0.00000000E+00  0.00000000E+00  0.00000000E+00
  0.00000000E+00  0.00000000E+00  0.00000000E+00
  0.00000000E+00  0.00000000E+00  0.00000000E+00
  0.00000000E+00  0.00000000E+00  0.00000000E+00
  0.00000000E+00  0.00000000E+00  0.00000000E+00
  0.00000000E+00  0.00000000E+00  0.00000000E+00
  0.00000000E+00  0.00000000E+00  0.00000000E+00
  0.00000000E+00  0.00000000E+00  0.00000000E+00
  0.00000000E+00  0.00000000E+00  0.00000000E+00
  0.00000000E+00  0.00000000E+00  0.00000000E+00
  0.00000000E+00  0.00000000E+00  0.00000000E+00
  0.00000000E+00  0.00000000E+00  0.00000000E+00
  0.00000000E+00  0.00000000E+00  0.00000000E+00
  0.00000000E+00  0.00000000E+00  0.00000000E+00
  0.00000000E+00  0.00000000E+00  0.00000000E+00
  0.00000000E+00  0.00000000E+00  0.00000000E+00
  0.00000000E+00  0.00000000E+00  0.00000000E+00
  0.00000000E+00  0.00000000E+00  0.00000000E+00
  0.00000000E+00  0.00000000E+00  0.00000000E+00
  0.00000000E+00  0.00000000E+00  0.00000000E+00
  0.00000000E+00  0.00000000E+00  0.00000000E+00
