crystal structure from VMoWS2 with Hexag
   1.00000000000000     
     8.3186376832388316    4.8309402332350642    0.0000000000000000
    -8.2965824650795543    4.7928841186825650    0.0000000000000000
     0.0000000000000000    0.0000000000000000   30.0000000000000000
   V    Mo   W    S 
     3     3     3    18
Direct
  0.6302714259942942 -0.0186480192921586  0.0020630623629272
  0.0318839890788648  0.6932136966179179 -0.0015118032901303
  0.6318391498391708  0.6546891055128933  0.0016589989125341
  0.3316071363698137  0.6833525298541512  0.0000670491288677
  0.3312902013603127  0.0007847616413777  0.0001216795052827
  0.0366565256028003  0.0187630598527549 -0.0017609780519292
  1.0402100227003686  0.3439827588442492 -0.0021228353729925
  0.3277106278672086  0.3121129257841038  0.0001814889727393
  0.6311598383797374  0.3116130506967599  0.0012174106544932
  0.1201706824511539  0.2239164935424673  0.9421273320414345
  0.2277339982203604  0.1107065839219724  0.0565523845625794
  0.1095795116991490  0.5606322425145533  0.9462279509039964
  0.2347840479947168  0.4493780435332421  0.0525623096154288
  0.1114857626005816  0.8851615872545043  0.9442613781118308
  0.2170303606067739  0.7782306335592948  0.0543761472821007
  0.4397803007925206  0.2174857030618069  0.9438225559365766
  0.5538136307174870  0.1050648313999134  0.0552623786851696
  0.4399921374642201  0.5540347183676085  0.9498739971137100
  0.5544532132926548  0.4456049908014445  0.0538724216425243
  0.4470809512088019  0.8921204620066224  0.9461869909768933
  0.5547553212308370  0.7802844102147476  0.0540698352260196
  0.7781517046010529  0.2167555243515920  0.9557194093444188
  0.8861174128083833  0.1098843429713738  0.0442552738115355
  0.7773047926467052  0.5590472423499629  0.9574015481198396
  0.8913748966518050  0.4458757276655958  0.0417875131684167
  0.7748499675800775  0.8881163562817757  0.9574259661770557
  0.8871268436771388  0.7760506901670519  0.0443004336586641
 
  0.00000000E+00  0.00000000E+00  0.00000000E+00
  0.00000000E+00  0.00000000E+00  0.00000000E+00
  0.00000000E+00  0.00000000E+00  0.00000000E+00
  0.00000000E+00  0.00000000E+00  0.00000000E+00
  0.00000000E+00  0.00000000E+00  0.00000000E+00
  0.00000000E+00  0.00000000E+00  0.00000000E+00
  0.00000000E+00  0.00000000E+00  0.00000000E+00
  0.00000000E+00  0.00000000E+00  0.00000000E+00
  0.00000000E+00  0.00000000E+00  0.00000000E+00
  0.00000000E+00  0.00000000E+00  0.00000000E+00
  0.00000000E+00  0.00000000E+00  0.00000000E+00
  0.00000000E+00  0.00000000E+00  0.00000000E+00
  0.00000000E+00  0.00000000E+00  0.00000000E+00
  0.00000000E+00  0.00000000E+00  0.00000000E+00
  0.00000000E+00  0.00000000E+00  0.00000000E+00
  0.00000000E+00  0.00000000E+00  0.00000000E+00
  0.00000000E+00  0.00000000E+00  0.00000000E+00
  0.00000000E+00  0.00000000E+00  0.00000000E+00
  0.00000000E+00  0.00000000E+00  0.00000000E+00
  0.00000000E+00  0.00000000E+00  0.00000000E+00
  0.00000000E+00  0.00000000E+00  0.00000000E+00
  0.00000000E+00  0.00000000E+00  0.00000000E+00
  0.00000000E+00  0.00000000E+00  0.00000000E+00
  0.00000000E+00  0.00000000E+00  0.00000000E+00
  0.00000000E+00  0.00000000E+00  0.00000000E+00
  0.00000000E+00  0.00000000E+00  0.00000000E+00
  0.00000000E+00  0.00000000E+00  0.00000000E+00
