crystal structure from VMoWS2 with Hexag
   1.00000000000000     
     8.3382531217587221    4.7838671224315226    0.0000000000000000
    -8.3417875782942517    4.7900473010607572    0.0000000000000000
     0.0000000000000000    0.0000000000000000   30.0000000000000000
   V    Mo   W    S 
     3     3     3    18
Direct
  0.3209178699524114  0.6892663168666513 -0.0021291350432284
  0.9783264392954903  0.3477665701325690 -0.0020198218819244
  0.0169135313246793 -0.0164506353531332  0.0022120037074473
  0.6455617917315409  0.0171199345823571 -0.0019125854329227
  0.0147799212626049  0.6872422265769735 -0.0003376637010773
  0.3364501354718408  0.0011697238468990 -0.0002182043996322
  0.3479706046357558  0.3138127524277030  0.0012996508517547
  0.6468657691029840  0.3155532247031349 -0.0000299214628654
  0.6892148702795610  0.6480355433594861  0.0030327354183993
  0.1064193819647991  0.2194894132119160  0.9563720068454492
  0.2178624293567213  0.1069058155042120  0.0551719817309553
  0.1146488725950151  0.5577875546157463  0.9468444004526566
  0.2199418288347534  0.4451110697923146  0.0418962232204899
  0.1112887633628000  0.8946573991771337  0.9456777719826651
  0.2266132393782910  0.7777597653955917  0.0536910222750476
  0.4436986925812441  0.2173669967414988  0.9433664394996856
  0.5501345425736301  0.1110416621897623  0.0560907111375061
  0.4465885151111029  0.5586806270670585  0.9568412031631824
  0.5557833389283805  0.4389133387826755  0.0568842709225488
  0.4379870785988003  0.8851854390372248  0.9440021984319295
  0.5535188422300104  0.7743207350544877  0.0443420527733737
  0.7767617493520987  0.2261163587970267  0.9446287343904128
  0.8914661978066608  0.1130952626666165  0.0428163990192597
  0.7841663920893982  0.5501762715815215  0.9477050165556344
  0.8864207067928194  0.4457604929145981  0.0501408164312268
  0.7798643201296959  0.8890291638658949  0.9573212025665697
  0.8980486286938801  0.7833014299396556  0.0563103897454479
 
  0.00000000E+00  0.00000000E+00  0.00000000E+00
  0.00000000E+00  0.00000000E+00  0.00000000E+00
  0.00000000E+00  0.00000000E+00  0.00000000E+00
  0.00000000E+00  0.00000000E+00  0.00000000E+00
  0.00000000E+00  0.00000000E+00  0.00000000E+00
  0.00000000E+00  0.00000000E+00  0.00000000E+00
  0.00000000E+00  0.00000000E+00  0.00000000E+00
  0.00000000E+00  0.00000000E+00  0.00000000E+00
  0.00000000E+00  0.00000000E+00  0.00000000E+00
  0.00000000E+00  0.00000000E+00  0.00000000E+00
  0.00000000E+00  0.00000000E+00  0.00000000E+00
  0.00000000E+00  0.00000000E+00  0.00000000E+00
  0.00000000E+00  0.00000000E+00  0.00000000E+00
  0.00000000E+00  0.00000000E+00  0.00000000E+00
  0.00000000E+00  0.00000000E+00  0.00000000E+00
  0.00000000E+00  0.00000000E+00  0.00000000E+00
  0.00000000E+00  0.00000000E+00  0.00000000E+00
  0.00000000E+00  0.00000000E+00  0.00000000E+00
  0.00000000E+00  0.00000000E+00  0.00000000E+00
  0.00000000E+00  0.00000000E+00  0.00000000E+00
  0.00000000E+00  0.00000000E+00  0.00000000E+00
  0.00000000E+00  0.00000000E+00  0.00000000E+00
  0.00000000E+00  0.00000000E+00  0.00000000E+00
  0.00000000E+00  0.00000000E+00  0.00000000E+00
  0.00000000E+00  0.00000000E+00  0.00000000E+00
  0.00000000E+00  0.00000000E+00  0.00000000E+00
  0.00000000E+00  0.00000000E+00  0.00000000E+00
