crystal structure from VMoWS2 with Hexag
   1.00000000000000     
     8.3796194087891500    4.8170999490482140    0.0000000000000000
    -8.3801075948636736    4.8176820559392519    0.0000000000000000
     0.0000000000000000    0.0000000000000000   30.0000000000000000
   V    Mo   W    S 
     3     3     3    18
Direct
 -0.0197397654405382  0.0193569483978167 -0.0026448441148269
  0.6832442073115824  0.6492985058979189  0.0017907621361743
  0.6690310547628875  0.0225631550952371 -0.0000687399216302
  0.6670821299833896  0.3291327205007082  0.0004872100610514
  0.3653421214713353  0.0143477716391732  0.0006956720414231
  0.9813201530683380  0.3434664245247164 -0.0008851883111817
 -0.0101571535186660  0.6385799175852636  0.0003500892599554
  0.3598152456060665  0.3160209180156585  0.0018234587941119
  0.3045772217916858  0.6756890101166265 -0.0027063935748167
  0.1175844087200258  0.2288985390376064  0.9520126865389257
  0.2166972411785726  0.1036470749201640  0.0500629879457765
  0.1018049639855582  0.5532966553469849  0.9422344418591627
  0.2265365898854085  0.4419260034223380  0.0439549889934747
  0.1074437511694292  0.8929663661608200  0.9596352617459397
  0.2168936794398393  0.7797081125020846  0.0529089276076096
  0.4519060935236715  0.2185693223105692  0.9446446181904015
  0.5648631588046240  0.1111862561786282  0.0557389967186636
  0.4453853779038785  0.5543613165267085  0.9557906055979146
  0.5627761025722413  0.4458827181398828  0.0548889069422488
  0.4519876336803033  0.8907948866015051  0.9466863883253429
  0.5545615835105628  0.7748195905898198  0.0409068478462839
  0.7741744037661424  0.2165094196480706  0.9452296082351712
  0.8826412853092253  0.1127286349354669  0.0512185617252541
  0.7772616246807263  0.5542899453478438  0.9468048724654524
  0.8852862801840212  0.4425307112810806  0.0568125647974210
  0.7700043035369101  0.8852910793600615  0.9532443517158306
  0.8898907565497559  0.7823524493948162  0.0483822555788580
 
  0.00000000E+00  0.00000000E+00  0.00000000E+00
  0.00000000E+00  0.00000000E+00  0.00000000E+00
  0.00000000E+00  0.00000000E+00  0.00000000E+00
  0.00000000E+00  0.00000000E+00  0.00000000E+00
  0.00000000E+00  0.00000000E+00  0.00000000E+00
  0.00000000E+00  0.00000000E+00  0.00000000E+00
  0.00000000E+00  0.00000000E+00  0.00000000E+00
  0.00000000E+00  0.00000000E+00  0.00000000E+00
  0.00000000E+00  0.00000000E+00  0.00000000E+00
  0.00000000E+00  0.00000000E+00  0.00000000E+00
  0.00000000E+00  0.00000000E+00  0.00000000E+00
  0.00000000E+00  0.00000000E+00  0.00000000E+00
  0.00000000E+00  0.00000000E+00  0.00000000E+00
  0.00000000E+00  0.00000000E+00  0.00000000E+00
  0.00000000E+00  0.00000000E+00  0.00000000E+00
  0.00000000E+00  0.00000000E+00  0.00000000E+00
  0.00000000E+00  0.00000000E+00  0.00000000E+00
  0.00000000E+00  0.00000000E+00  0.00000000E+00
  0.00000000E+00  0.00000000E+00  0.00000000E+00
  0.00000000E+00  0.00000000E+00  0.00000000E+00
  0.00000000E+00  0.00000000E+00  0.00000000E+00
  0.00000000E+00  0.00000000E+00  0.00000000E+00
  0.00000000E+00  0.00000000E+00  0.00000000E+00
  0.00000000E+00  0.00000000E+00  0.00000000E+00
  0.00000000E+00  0.00000000E+00  0.00000000E+00
  0.00000000E+00  0.00000000E+00  0.00000000E+00
  0.00000000E+00  0.00000000E+00  0.00000000E+00
