crystal structure from VMoWS2 with Hexag
   1.00000000000000     
     8.3926925757026876    4.8245275442039945    0.0000000000000000
    -8.3825836650493812    4.8067843908166408    0.0000000000000000
     0.0000000000000000    0.0000000000000000   30.0000000000000000
   V    Mo   W    S 
     3     3     3    18
Direct
  0.3504990801533467  0.6446987087273230  0.0029436806038288
  0.6530192663826745  0.0222410050513638 -0.0017105114109582
  0.9797614320357713  0.3528778135753851 -0.0020609234964503
 -0.0324649630833900  0.6557422663509169 -0.0009620350594371
  0.3513315191273652  0.3248852549754960  0.0009429745439283
  0.6627433754970080  0.3413509162433091 -0.0006417795011296
  0.0326629898166541 -0.0023942525103937  0.0020331134482072
  0.3442575779152569  0.0283458973417777 -0.0002394833185421
  0.6596613372687751  0.6366142746550688  0.0002852463117212
  0.1069079392470221  0.2254154142200883  0.9554942638774164
  0.2300009847694829  0.1122332743334126  0.0577520147761869
  0.1138979371893605  0.5583911305645614  0.9514121795094739
  0.2119137119872737  0.4344762219222738  0.0476728349871260
  0.1177806542606158  0.8883592911302486  0.9468153251681404
  0.2247990470621583  0.7730215709675364  0.0404938703255838
  0.4484486513347755  0.2235275154927368  0.9431079351838927
  0.5572080273392603  0.1138371673720616  0.0531705390376325
  0.4433540215153516  0.5502938063151578  0.9475423086918172
  0.5555392556570528  0.4418366559046434  0.0572639318444738
  0.4431682841670870  0.8834916456602705  0.9524081151112535
  0.5591539141785824  0.7804583568857764  0.0478736819229096
  0.7766949022264977  0.2245588568307902  0.9472368683583093
  0.8888372800821097  0.1152970065173572  0.0431539845921062
  0.7710351691720327  0.5524001503868284  0.9425416856449949
  0.8861113600543872  0.4460928581292075  0.0527624529407489
  0.7783972399535034  0.8920017727475106  0.9591874846515028
  0.8834944581270026  0.7781598736868549  0.0535201404552683
 
  0.00000000E+00  0.00000000E+00  0.00000000E+00
  0.00000000E+00  0.00000000E+00  0.00000000E+00
  0.00000000E+00  0.00000000E+00  0.00000000E+00
  0.00000000E+00  0.00000000E+00  0.00000000E+00
  0.00000000E+00  0.00000000E+00  0.00000000E+00
  0.00000000E+00  0.00000000E+00  0.00000000E+00
  0.00000000E+00  0.00000000E+00  0.00000000E+00
  0.00000000E+00  0.00000000E+00  0.00000000E+00
  0.00000000E+00  0.00000000E+00  0.00000000E+00
  0.00000000E+00  0.00000000E+00  0.00000000E+00
  0.00000000E+00  0.00000000E+00  0.00000000E+00
  0.00000000E+00  0.00000000E+00  0.00000000E+00
  0.00000000E+00  0.00000000E+00  0.00000000E+00
  0.00000000E+00  0.00000000E+00  0.00000000E+00
  0.00000000E+00  0.00000000E+00  0.00000000E+00
  0.00000000E+00  0.00000000E+00  0.00000000E+00
  0.00000000E+00  0.00000000E+00  0.00000000E+00
  0.00000000E+00  0.00000000E+00  0.00000000E+00
  0.00000000E+00  0.00000000E+00  0.00000000E+00
  0.00000000E+00  0.00000000E+00  0.00000000E+00
  0.00000000E+00  0.00000000E+00  0.00000000E+00
  0.00000000E+00  0.00000000E+00  0.00000000E+00
  0.00000000E+00  0.00000000E+00  0.00000000E+00
  0.00000000E+00  0.00000000E+00  0.00000000E+00
  0.00000000E+00  0.00000000E+00  0.00000000E+00
  0.00000000E+00  0.00000000E+00  0.00000000E+00
  0.00000000E+00  0.00000000E+00  0.00000000E+00
