crystal structure from VMoWS2 with Hexag
   1.00000000000000     
     8.3445815625168684    4.7916788579769314    0.0000000000000000
    -8.3408614511743018    4.7851765679527993    0.0000000000000000
     0.0000000000000000    0.0000000000000000   30.0000000000000000
   V    Mo   W    S 
     3     3     3    18
Direct
  0.6895330511914312 -0.0120285480522169  0.0018992348651942
 -0.0162437512984011  0.6836275917607334 -0.0019372239199663
  0.3464022932444414  0.6442413790833031  0.0014012411070133
  0.6878275069185148  0.6812750910323129  0.0004535469129874
  1.0170262587958150  0.3121253405998847  0.0017330696921274
  0.0011449578984914  0.0031264080733543  0.0002282319898192
  0.3136295689624088  0.0144195637741164 -0.0010666407526729
  0.3153829477399340  0.3136394817267305 -0.0000141686112627
  0.6486479506447115  0.3561413515801248 -0.0026454364763604
  0.1111618886913227  0.2164179976156261  0.9438008755262145
  0.2171888709915092  0.1109615230702387  0.0567179902644458
  0.1123906610464513  0.5577782976702836  0.9568630702460668
  0.2260430423934963  0.4440991228916094  0.0550791817434374
  0.1070921766214377  0.8842711114743346  0.9450305875924457
  0.2194793488339341  0.7732243062122506  0.0438552958080831
  0.4396276987170773  0.2224149298353924  0.9434359766042023
  0.5586699462809025  0.1131138877695648  0.0433289386536880
  0.4463919319185863  0.5526587214154079  0.9497276240532072
  0.5498417659522766  0.4511945720898680  0.0524474185772848
  0.4449390658105061  0.8868826909776796  0.9579771424719687
  0.5568868886283620  0.7813645565143483  0.0526375715627160
  0.7742967539741599  0.2203763865194593  0.9555485097594716
  0.8849693363324227  0.1048425157326226  0.0558645920744638
  0.7837598560583844  0.5643300507000606  0.9439523007139652
  0.8895245995306001  0.4465062603180521  0.0429029870915895
  0.7779017200675518  0.8926870504828106  0.9462791360254379
  0.8946981174906500  0.7785228126096138  0.0544988456244244
 
  0.00000000E+00  0.00000000E+00  0.00000000E+00
  0.00000000E+00  0.00000000E+00  0.00000000E+00
  0.00000000E+00  0.00000000E+00  0.00000000E+00
  0.00000000E+00  0.00000000E+00  0.00000000E+00
  0.00000000E+00  0.00000000E+00  0.00000000E+00
  0.00000000E+00  0.00000000E+00  0.00000000E+00
  0.00000000E+00  0.00000000E+00  0.00000000E+00
  0.00000000E+00  0.00000000E+00  0.00000000E+00
  0.00000000E+00  0.00000000E+00  0.00000000E+00
  0.00000000E+00  0.00000000E+00  0.00000000E+00
  0.00000000E+00  0.00000000E+00  0.00000000E+00
  0.00000000E+00  0.00000000E+00  0.00000000E+00
  0.00000000E+00  0.00000000E+00  0.00000000E+00
  0.00000000E+00  0.00000000E+00  0.00000000E+00
  0.00000000E+00  0.00000000E+00  0.00000000E+00
  0.00000000E+00  0.00000000E+00  0.00000000E+00
  0.00000000E+00  0.00000000E+00  0.00000000E+00
  0.00000000E+00  0.00000000E+00  0.00000000E+00
  0.00000000E+00  0.00000000E+00  0.00000000E+00
  0.00000000E+00  0.00000000E+00  0.00000000E+00
  0.00000000E+00  0.00000000E+00  0.00000000E+00
  0.00000000E+00  0.00000000E+00  0.00000000E+00
  0.00000000E+00  0.00000000E+00  0.00000000E+00
  0.00000000E+00  0.00000000E+00  0.00000000E+00
  0.00000000E+00  0.00000000E+00  0.00000000E+00
  0.00000000E+00  0.00000000E+00  0.00000000E+00
  0.00000000E+00  0.00000000E+00  0.00000000E+00
