crystal structure from VMoWS2 with Hexag
   1.00000000000000     
     8.3675537971527092    4.8420961526649382    0.0000000000000000
    -8.3698069554623888    4.8459002648222747    0.0000000000000000
     0.0000000000000000    0.0000000000000000   30.0000000000000000
   V    Mo   W    S 
     3     3     3    18
Direct
 -0.0186076180641048 -0.0369374203308001 -0.0006006796948061
  0.2990130877049749  0.6484516979719754  0.0006791933396942
  0.3091411140162647 -0.0247617259530659 -0.0003455315987288
 -0.0078460420464628  0.6602594014856331 -0.0000054526574140
  0.6802285044977087  0.6466121198483794  0.0002455720945472
  0.6859818981822927  0.3542514940558137 -0.0000202193248305
  0.9813398453196283  0.3475601841963252 -0.0000421173367135
  0.3726881158996395  0.3500829441619593 -0.0016076579418702
  0.6833956125706195  0.0396194289620513  0.0017779905015746
  0.1120195670427095  0.2198148783542291  0.9597021496446788
  0.2175696008170377  0.1053210105709510  0.0458526410892114
  0.1126665832993078  0.5572482961084714  0.9457625120116423
  0.2231891550440584  0.4436278023092790  0.0486431144337803
  0.1082107074560594  0.8892468119199142  0.9483100732834605
  0.2235212718007381  0.7757363724639782  0.0511819445155159
  0.4479784458144928  0.2142391246712669  0.9503278733834389
  0.5461373336940710  0.1142744017767580  0.0494042053409087
  0.4478112463444969  0.5626105777107435  0.9501318086549434
  0.5614969469197965  0.4451402774264231  0.0562519385053714
  0.4403201323716198  0.8849395866124881  0.9537726319848883
  0.5537210190241972  0.7801888297407691  0.0404765721318287
  0.7803041686938994  0.2301544975549274  0.9440314319315348
  0.8973574201849700  0.1154570016410718  0.0498071727381116
  0.7835010720995473  0.5572248589053879  0.9431625012147512
  0.8902808545902947  0.4499424617014464  0.0568887731596989
  0.7765926113327232  0.8897850098738143  0.9516889268590645
  0.8902017988263997  0.7781245297373823  0.0545225309357097
 
  0.00000000E+00  0.00000000E+00  0.00000000E+00
  0.00000000E+00  0.00000000E+00  0.00000000E+00
  0.00000000E+00  0.00000000E+00  0.00000000E+00
  0.00000000E+00  0.00000000E+00  0.00000000E+00
  0.00000000E+00  0.00000000E+00  0.00000000E+00
  0.00000000E+00  0.00000000E+00  0.00000000E+00
  0.00000000E+00  0.00000000E+00  0.00000000E+00
  0.00000000E+00  0.00000000E+00  0.00000000E+00
  0.00000000E+00  0.00000000E+00  0.00000000E+00
  0.00000000E+00  0.00000000E+00  0.00000000E+00
  0.00000000E+00  0.00000000E+00  0.00000000E+00
  0.00000000E+00  0.00000000E+00  0.00000000E+00
  0.00000000E+00  0.00000000E+00  0.00000000E+00
  0.00000000E+00  0.00000000E+00  0.00000000E+00
  0.00000000E+00  0.00000000E+00  0.00000000E+00
  0.00000000E+00  0.00000000E+00  0.00000000E+00
  0.00000000E+00  0.00000000E+00  0.00000000E+00
  0.00000000E+00  0.00000000E+00  0.00000000E+00
  0.00000000E+00  0.00000000E+00  0.00000000E+00
  0.00000000E+00  0.00000000E+00  0.00000000E+00
  0.00000000E+00  0.00000000E+00  0.00000000E+00
  0.00000000E+00  0.00000000E+00  0.00000000E+00
  0.00000000E+00  0.00000000E+00  0.00000000E+00
  0.00000000E+00  0.00000000E+00  0.00000000E+00
  0.00000000E+00  0.00000000E+00  0.00000000E+00
  0.00000000E+00  0.00000000E+00  0.00000000E+00
  0.00000000E+00  0.00000000E+00  0.00000000E+00
