crystal structure from VMoWS2 with Hexag
   1.00000000000000     
     8.3675526558754303    4.8420951581269094    0.0000000000000000
    -8.3698048332669686    4.8458976528961522    0.0000000000000000
     0.0000000000000000    0.0000000000000000   30.0000000000000000
   V    Mo   W    S 
     3     3     3    18
Direct
 -0.0343204317940418 -0.0182152229486984  0.0006791225260034
  0.6480587465274960  0.2963957032389216 -0.0006006444913153
  0.9758069318605908  0.3085707626184078 -0.0003455464217904
  0.3526492683425979  0.6875854649626408 -0.0000202020279434
  0.6588206724841760 -0.0064070965567226 -0.0000054645738376
  0.3468952860704232 -0.0200543043260685  0.0002455399527622
  0.0393550305611482  0.6834165261641032 -0.0016076183148440
  0.3500627304480085  0.3729531081614473  0.0017779611927500
  0.6480065821328437  0.6808935375546807 -0.0000420723180373
  0.1069866728301474  0.2182727385647188  0.9537726282543535
  0.2203877043133050  0.1135223344846232  0.0404765527848358
  0.1146452371864477  0.5475721736918483  0.9503280119192170
  0.2128037513180452  0.4476077660339305  0.0494040560504173
  0.1144777539332099  0.8959436542855670  0.9501317860594047
  0.2281638062523067  0.7784738131908157  0.0562519200778502
  0.4432592527156355  0.2231185774934009  0.9516889372121810
  0.5568685620868005  0.1114578932883609  0.0545225188943479
  0.4469709414657050  0.5634880627995086  0.9440314626026021
  0.5640240663637504  0.4487902340854684  0.0498072124772618
  0.4501678363746770  0.8905585692641420  0.9431625179219588
  0.5569478795444539  0.7832759582637452  0.0568887608617695
  0.7748768613584404  0.2225800960369792  0.9483099744751547
  0.8901878791953550  0.1090693874230702  0.0511820223031831
  0.7786862514628357  0.5531481105837306  0.9597021966376884
  0.8842360203841014  0.4386539820675229  0.0458526238566783
  0.7793330989604165  0.8905815234501556  0.9457625411280668
  0.8898560610581060  0.7769610996012744  0.0486431001592734
 
  0.00000000E+00  0.00000000E+00  0.00000000E+00
  0.00000000E+00  0.00000000E+00  0.00000000E+00
  0.00000000E+00  0.00000000E+00  0.00000000E+00
  0.00000000E+00  0.00000000E+00  0.00000000E+00
  0.00000000E+00  0.00000000E+00  0.00000000E+00
  0.00000000E+00  0.00000000E+00  0.00000000E+00
  0.00000000E+00  0.00000000E+00  0.00000000E+00
  0.00000000E+00  0.00000000E+00  0.00000000E+00
  0.00000000E+00  0.00000000E+00  0.00000000E+00
  0.00000000E+00  0.00000000E+00  0.00000000E+00
  0.00000000E+00  0.00000000E+00  0.00000000E+00
  0.00000000E+00  0.00000000E+00  0.00000000E+00
  0.00000000E+00  0.00000000E+00  0.00000000E+00
  0.00000000E+00  0.00000000E+00  0.00000000E+00
  0.00000000E+00  0.00000000E+00  0.00000000E+00
  0.00000000E+00  0.00000000E+00  0.00000000E+00
  0.00000000E+00  0.00000000E+00  0.00000000E+00
  0.00000000E+00  0.00000000E+00  0.00000000E+00
  0.00000000E+00  0.00000000E+00  0.00000000E+00
  0.00000000E+00  0.00000000E+00  0.00000000E+00
  0.00000000E+00  0.00000000E+00  0.00000000E+00
  0.00000000E+00  0.00000000E+00  0.00000000E+00
  0.00000000E+00  0.00000000E+00  0.00000000E+00
  0.00000000E+00  0.00000000E+00  0.00000000E+00
  0.00000000E+00  0.00000000E+00  0.00000000E+00
  0.00000000E+00  0.00000000E+00  0.00000000E+00
  0.00000000E+00  0.00000000E+00  0.00000000E+00
