crystal structure from VMoWS2 with Hexag
   1.00000000000000     
     8.3063871468968813    4.8023285051194522    0.0000000000000000
    -8.3191403908135673    4.8244577935049122    0.0000000000000000
     0.0000000000000000    0.0000000000000000   30.0000000000000000
   V    Mo   W    S 
     3     3     3    18
Direct
  0.6461879230149222 -0.0396347834297772 -0.0023801832703564
  0.3167335261189338 -0.0324815283098062 -0.0014502079460575
  0.3521518542004163  0.3716012797050696  0.0024334666457841
  0.3126019369336981  0.6626188421923808 -0.0001345635345394
  0.6863835319114310  0.6666980928895090 -0.0000774202707366
 -0.0044735596650285  0.6616097514893977 -0.0002648041848667
 -0.0156091835568346 -0.0360630526140468 -0.0013471475676930
  1.0147275573956782  0.3701310750062876  0.0017174551506790
  0.6868860638322071  0.3685021851891230  0.0014336499740975
  0.1146771882650179  0.2240256220079253  0.9571978744846859
  0.2258239379629741  0.1134582518375773  0.0436992150623122
  0.1099412504957237  0.5588514329483596  0.9436188020297041
  0.2243657730346667  0.4470219785161413  0.0553656175998674
  0.1154934643126323  0.8892067909602683  0.9452210817254435
  0.2218952278595150  0.7809702108012934  0.0538792703459220
  0.4419072243597654  0.2229376535561538  0.9576003871317094
  0.5554344176691250  0.1081620638309840  0.0423878080268380
  0.4462910455548835  0.5590811203817969  0.9494493880999770
  0.5551128835119510  0.4466267587569613  0.0549643575912234
  0.4418881431921530  0.8886595949015346  0.9464778439732378
  0.5528396987091025  0.7729071444009928  0.0501948853534397
  0.7759786285916846  0.2181831645399213  0.9551665285912307
  0.8842834395784503  0.1094586836157580  0.0431135741155577
  0.7818463281439726  0.5590585582075118  0.9433910944299910
  0.8902420303989405  0.4474092543394831  0.0572407231834903
  0.7745845084526388  0.8854761259802217  0.9449566555009177
  0.8900196131583585  0.7737381817765490  0.0561445469581341
 
  0.00000000E+00  0.00000000E+00  0.00000000E+00
  0.00000000E+00  0.00000000E+00  0.00000000E+00
  0.00000000E+00  0.00000000E+00  0.00000000E+00
  0.00000000E+00  0.00000000E+00  0.00000000E+00
  0.00000000E+00  0.00000000E+00  0.00000000E+00
  0.00000000E+00  0.00000000E+00  0.00000000E+00
  0.00000000E+00  0.00000000E+00  0.00000000E+00
  0.00000000E+00  0.00000000E+00  0.00000000E+00
  0.00000000E+00  0.00000000E+00  0.00000000E+00
  0.00000000E+00  0.00000000E+00  0.00000000E+00
  0.00000000E+00  0.00000000E+00  0.00000000E+00
  0.00000000E+00  0.00000000E+00  0.00000000E+00
  0.00000000E+00  0.00000000E+00  0.00000000E+00
  0.00000000E+00  0.00000000E+00  0.00000000E+00
  0.00000000E+00  0.00000000E+00  0.00000000E+00
  0.00000000E+00  0.00000000E+00  0.00000000E+00
  0.00000000E+00  0.00000000E+00  0.00000000E+00
  0.00000000E+00  0.00000000E+00  0.00000000E+00
  0.00000000E+00  0.00000000E+00  0.00000000E+00
  0.00000000E+00  0.00000000E+00  0.00000000E+00
  0.00000000E+00  0.00000000E+00  0.00000000E+00
  0.00000000E+00  0.00000000E+00  0.00000000E+00
  0.00000000E+00  0.00000000E+00  0.00000000E+00
  0.00000000E+00  0.00000000E+00  0.00000000E+00
  0.00000000E+00  0.00000000E+00  0.00000000E+00
  0.00000000E+00  0.00000000E+00  0.00000000E+00
  0.00000000E+00  0.00000000E+00  0.00000000E+00
