crystal structure from VMoWS2 with Hexag
   1.00000000000000     
     8.3578000202850138    4.8594863387217444    0.0000000000000000
    -8.3346683639411978    4.8194464996883495    0.0000000000000000
     0.0000000000000000    0.0000000000000000   30.0000000000000000
   V    Mo   W    S 
     3     3     3    18
Direct
  0.3086029560110953  0.6528584590440434  0.0002851946491899
  0.7074704850561763  0.3575998208030030 -0.0021945900675701
  0.6261983874689494 -0.0162368492539328  0.0041946105056896
  0.0016862803881378  0.6701141656418275 -0.0006767867442008
  0.2931996728320864  0.3126415314397472  0.0029791981820689
  1.0216069947486035  0.3622703678070115 -0.0008690255195835
  0.0191694936279081 -0.0073515773289620 -0.0004438580891592
  0.3064332421543081 -0.0122141271511228  0.0002977255891561
  0.7084530992179573  0.6806814472138154 -0.0020961036906848
  0.1010633267644901  0.2168617487946741  0.9466901086440186
  0.2174654604325496  0.1065717654423666  0.0571407148687680
  0.1196254419928368  0.5619752279730635  0.9445366030263443
  0.2227412418708162  0.4514112715230785  0.0555846969775173
  0.1105501151126697  0.8870170168978756  0.9427950326672102
  0.2271635942509182  0.7761314545189683  0.0531090199761004
  0.4511963538442731  0.2279095385661848  0.9567487830912976
  0.5540470754951238  0.1216974788198459  0.0480648371516388
  0.4483207671072129  0.5556920998037895  0.9570758106857451
  0.5583342211136592  0.4426610414212338  0.0435813542799628
  0.4356868741910994  0.8813850139528929  0.9504199821712135
  0.5522933520550923  0.7677698181865560  0.0469250827471525
  0.7730580239757234  0.2165989669778786  0.9519396950053050
  0.8800185284360129  0.1064175694115535  0.0411892672782903
  0.7858673680900637  0.5532921983342973  0.9440830440597812
  0.8927836551977140  0.4474152834862459  0.0527547930845663
  0.7762642649148186  0.8955753062440643  0.9508285445279162
  0.8989141770866790  0.7814684149075650  0.0550561641422601
 
  0.00000000E+00  0.00000000E+00  0.00000000E+00
  0.00000000E+00  0.00000000E+00  0.00000000E+00
  0.00000000E+00  0.00000000E+00  0.00000000E+00
  0.00000000E+00  0.00000000E+00  0.00000000E+00
  0.00000000E+00  0.00000000E+00  0.00000000E+00
  0.00000000E+00  0.00000000E+00  0.00000000E+00
  0.00000000E+00  0.00000000E+00  0.00000000E+00
  0.00000000E+00  0.00000000E+00  0.00000000E+00
  0.00000000E+00  0.00000000E+00  0.00000000E+00
  0.00000000E+00  0.00000000E+00  0.00000000E+00
  0.00000000E+00  0.00000000E+00  0.00000000E+00
  0.00000000E+00  0.00000000E+00  0.00000000E+00
  0.00000000E+00  0.00000000E+00  0.00000000E+00
  0.00000000E+00  0.00000000E+00  0.00000000E+00
  0.00000000E+00  0.00000000E+00  0.00000000E+00
  0.00000000E+00  0.00000000E+00  0.00000000E+00
  0.00000000E+00  0.00000000E+00  0.00000000E+00
  0.00000000E+00  0.00000000E+00  0.00000000E+00
  0.00000000E+00  0.00000000E+00  0.00000000E+00
  0.00000000E+00  0.00000000E+00  0.00000000E+00
  0.00000000E+00  0.00000000E+00  0.00000000E+00
  0.00000000E+00  0.00000000E+00  0.00000000E+00
  0.00000000E+00  0.00000000E+00  0.00000000E+00
  0.00000000E+00  0.00000000E+00  0.00000000E+00
  0.00000000E+00  0.00000000E+00  0.00000000E+00
  0.00000000E+00  0.00000000E+00  0.00000000E+00
  0.00000000E+00  0.00000000E+00  0.00000000E+00
