crystal structure from VMoWS2 with Hexag
   1.00000000000000     
     8.3390068628161451    4.7961964317228194    0.0000000000000000
    -8.3552124996017980    4.8242756706135408    0.0000000000000000
     0.0000000000000000    0.0000000000000000   30.0000000000000000
   V    Mo   W    S 
     3     3     3    18
Direct
  0.6418786574507698  0.6311022016016773 -0.0015357001441309
  0.0000929310683083  0.6428127172504865  0.0000164366801315
  0.3578315265456263 -0.0111588013014530  0.0015912144376330
  0.6839158685970309  0.3249667977504962  0.0005086330546385
  0.3159877763665469  0.6410328485982448 -0.0005007777434102
  0.9999317833557839  0.3359381455775420 -0.0000053688479141
 -0.0001725121152961  0.0342473053782405 -0.0000328880468797
  0.3138891051892519  0.3484458721916686 -0.0003625683601099
  0.6859608168085168  0.0344724256315859  0.0003381879521249
  0.1114818141937131  0.2305968793737051  0.9432443081596558
  0.2252028028745486  0.1111752045066595  0.0478769666450747
  0.1087533227286023  0.5598272155569900  0.9453805276289304
  0.2155904917070161  0.4442227998632756  0.0566427517639720
  0.1138450588947403  0.8909600216755911  0.9582236671980598
  0.2193660620890331  0.7749757054979094  0.0504621283893839
  0.4375430311095738  0.2174449240691672  0.9564071326289751
  0.5557920231058141  0.1095471797968938  0.0554055537996866
  0.4441383330952147  0.5537404309052323  0.9446012955587990
  0.5481682871663117  0.4374252286348861  0.0497071334313567
  0.4516386725833904  0.8891498911061456  0.9502817774248701
  0.5623225931608696  0.7799126655930749  0.0436287999947278
  0.7842925328317601  0.2286112097835812  0.9433486375064517
  0.8884034341847826  0.1190154904454527  0.0567239310626817
  0.7805222532081970  0.5556459401761917  0.9496198936669312
  0.8911480591168252  0.4510482003428869  0.0546198852384777
  0.7746264796653607  0.8859725134079036  0.9520412235435918
  0.8860632484546944  0.7770834400635357  0.0417671165762813
 
  0.00000000E+00  0.00000000E+00  0.00000000E+00
  0.00000000E+00  0.00000000E+00  0.00000000E+00
  0.00000000E+00  0.00000000E+00  0.00000000E+00
  0.00000000E+00  0.00000000E+00  0.00000000E+00
  0.00000000E+00  0.00000000E+00  0.00000000E+00
  0.00000000E+00  0.00000000E+00  0.00000000E+00
  0.00000000E+00  0.00000000E+00  0.00000000E+00
  0.00000000E+00  0.00000000E+00  0.00000000E+00
  0.00000000E+00  0.00000000E+00  0.00000000E+00
  0.00000000E+00  0.00000000E+00  0.00000000E+00
  0.00000000E+00  0.00000000E+00  0.00000000E+00
  0.00000000E+00  0.00000000E+00  0.00000000E+00
  0.00000000E+00  0.00000000E+00  0.00000000E+00
  0.00000000E+00  0.00000000E+00  0.00000000E+00
  0.00000000E+00  0.00000000E+00  0.00000000E+00
  0.00000000E+00  0.00000000E+00  0.00000000E+00
  0.00000000E+00  0.00000000E+00  0.00000000E+00
  0.00000000E+00  0.00000000E+00  0.00000000E+00
  0.00000000E+00  0.00000000E+00  0.00000000E+00
  0.00000000E+00  0.00000000E+00  0.00000000E+00
  0.00000000E+00  0.00000000E+00  0.00000000E+00
  0.00000000E+00  0.00000000E+00  0.00000000E+00
  0.00000000E+00  0.00000000E+00  0.00000000E+00
  0.00000000E+00  0.00000000E+00  0.00000000E+00
  0.00000000E+00  0.00000000E+00  0.00000000E+00
  0.00000000E+00  0.00000000E+00  0.00000000E+00
  0.00000000E+00  0.00000000E+00  0.00000000E+00
