crystal structure from VMoWS2 with Hexag
   1.00000000000000     
     8.3371061670612594    4.8371975809818535    0.0000000000000000
    -8.3282754148254359    4.8219127992263102    0.0000000000000000
     0.0000000000000000    0.0000000000000000   30.0000000000000000
   V    Mo   W    S 
     3     3     3    18
Direct
  0.3060353589881511 -0.0180257645811773  0.0002227537988741
  0.6605419761985986 -0.0355330011310081 -0.0013364388614084
  0.2969754730207876  0.3137924438165510  0.0016684946754977
 -0.0006351099365584  0.6688465935854547 -0.0001110899880257
  0.7017862160021808  0.6819661517964029 -0.0002786718624753
 -0.0087692741937516 -0.0263239314687810 -0.0007037493606019
  1.0154388464595201  0.3689639054881569  0.0004453839829577
  0.3107390272747620  0.6580551369432579 -0.0000704466947806
  0.7005418341222829  0.3691839112034129  0.0002387755855345
  0.1029560914882493  0.2217553715621840  0.9504978101018392
  0.2193592111470679  0.1066080700800934  0.0516631486749354
  0.1123658479518481  0.5633062719100186  0.9434993145274149
  0.2224716163797176  0.4435300859161712  0.0546673148205405
  0.1163665062566734  0.8929510286467386  0.9451086891132524
  0.2283813610348998  0.7847764030814650  0.0535766724549138
  0.4434619083620323  0.2247713213364131  0.9574845191966574
  0.5569198750013733  0.1101642327635654  0.0409476245974804
  0.4454004435801867  0.5490304525389406  0.9569413376956246
  0.5513412411315783  0.4431079439132832  0.0479093049840421
  0.4422272636831661  0.8903477143420756  0.9506727894778741
  0.5560231710798781  0.7712623870398161  0.0498802897683830
  0.7776866853815365  0.2201636854259388  0.9524159251434062
  0.8845436818451292  0.1137000793275954  0.0437855593421956
  0.7860259526298271  0.5633871576606447  0.9432181557941984
  0.8969671395455490  0.4531111247437213  0.0566615381839350
  0.7768036453590923  0.8871190056242507  0.9444019613713653
  0.8962584636431995  0.7781966719123755  0.0565929326763612
 
  0.00000000E+00  0.00000000E+00  0.00000000E+00
  0.00000000E+00  0.00000000E+00  0.00000000E+00
  0.00000000E+00  0.00000000E+00  0.00000000E+00
  0.00000000E+00  0.00000000E+00  0.00000000E+00
  0.00000000E+00  0.00000000E+00  0.00000000E+00
  0.00000000E+00  0.00000000E+00  0.00000000E+00
  0.00000000E+00  0.00000000E+00  0.00000000E+00
  0.00000000E+00  0.00000000E+00  0.00000000E+00
  0.00000000E+00  0.00000000E+00  0.00000000E+00
  0.00000000E+00  0.00000000E+00  0.00000000E+00
  0.00000000E+00  0.00000000E+00  0.00000000E+00
  0.00000000E+00  0.00000000E+00  0.00000000E+00
  0.00000000E+00  0.00000000E+00  0.00000000E+00
  0.00000000E+00  0.00000000E+00  0.00000000E+00
  0.00000000E+00  0.00000000E+00  0.00000000E+00
  0.00000000E+00  0.00000000E+00  0.00000000E+00
  0.00000000E+00  0.00000000E+00  0.00000000E+00
  0.00000000E+00  0.00000000E+00  0.00000000E+00
  0.00000000E+00  0.00000000E+00  0.00000000E+00
  0.00000000E+00  0.00000000E+00  0.00000000E+00
  0.00000000E+00  0.00000000E+00  0.00000000E+00
  0.00000000E+00  0.00000000E+00  0.00000000E+00
  0.00000000E+00  0.00000000E+00  0.00000000E+00
  0.00000000E+00  0.00000000E+00  0.00000000E+00
  0.00000000E+00  0.00000000E+00  0.00000000E+00
  0.00000000E+00  0.00000000E+00  0.00000000E+00
  0.00000000E+00  0.00000000E+00  0.00000000E+00
