crystal structure from VMoWS2 with Hexag
   1.00000000000000     
     8.2857445020574882    4.8165324770670601    0.0000000000000000
    -8.2850444330493378    4.8153253662531146    0.0000000000000000
     0.0000000000000000    0.0000000000000000   30.0000000000000000
   V    Mo   W    S 
     3     3     3    18
Direct
  0.6812567774364128  0.0138560821764721 -0.0000336414807866
  0.6965661162467162  0.6816994934473855 -0.0008345102943389
  0.3476690588733554  0.0295702577837652  0.0008073534025713
  0.0037348141904187 -0.0068895682943234 -0.0001872778565188
  0.3013324683881217  0.6346574254358091  0.0000056315562560
  0.6598237505109016  0.3368807661437436  0.0002029447009739
  1.0154124814380694  0.3488839633387787 -0.0000052914657322
 -0.0097818226195450  0.6478544412310863 -0.0001440068836798
  0.3138916232410338  0.3230587839330621  0.0001945419539115
  0.1046890908070468  0.2183495788402278  0.9467077241501702
  0.2264988575832115  0.1088159808433498  0.0536750464848868
  0.1035110126196663  0.5501609736269759  0.9432863820151529
  0.2166349636964620  0.4367620799030427  0.0567290142857941
  0.1235456030608380  0.8891668677376092  0.9507921699874048
  0.2237999820253252  0.7831797741942934  0.0483686315191726
  0.4387876518012760  0.2218602786023400  0.9473100428334779
  0.5554251281524630  0.1095770601901573  0.0507689251423346
  0.4498912455547210  0.5570533410893370  0.9517334164601192
  0.5556087833874184  0.4568671204986205  0.0491013750228282
  0.4445874256337046  0.8892943412052492  0.9557678047399308
  0.5560631371913580  0.7779789675345458  0.0442957231974120
  0.7761326319693999  0.2207001955262338  0.9493940101163704
  0.8872432016979142  0.1095231696397870  0.0506479104072234
  0.7756736353147557  0.5599374669846301  0.9464050670206211
  0.8849537173405250  0.4380570080861593  0.0532142980278601
  0.7765932810601102  0.8889860737240101  0.9490751206934906
  0.8886698368353295  0.7723725300552080  0.0527214934630687
 
  0.00000000E+00  0.00000000E+00  0.00000000E+00
  0.00000000E+00  0.00000000E+00  0.00000000E+00
  0.00000000E+00  0.00000000E+00  0.00000000E+00
  0.00000000E+00  0.00000000E+00  0.00000000E+00
  0.00000000E+00  0.00000000E+00  0.00000000E+00
  0.00000000E+00  0.00000000E+00  0.00000000E+00
  0.00000000E+00  0.00000000E+00  0.00000000E+00
  0.00000000E+00  0.00000000E+00  0.00000000E+00
  0.00000000E+00  0.00000000E+00  0.00000000E+00
  0.00000000E+00  0.00000000E+00  0.00000000E+00
  0.00000000E+00  0.00000000E+00  0.00000000E+00
  0.00000000E+00  0.00000000E+00  0.00000000E+00
  0.00000000E+00  0.00000000E+00  0.00000000E+00
  0.00000000E+00  0.00000000E+00  0.00000000E+00
  0.00000000E+00  0.00000000E+00  0.00000000E+00
  0.00000000E+00  0.00000000E+00  0.00000000E+00
  0.00000000E+00  0.00000000E+00  0.00000000E+00
  0.00000000E+00  0.00000000E+00  0.00000000E+00
  0.00000000E+00  0.00000000E+00  0.00000000E+00
  0.00000000E+00  0.00000000E+00  0.00000000E+00
  0.00000000E+00  0.00000000E+00  0.00000000E+00
  0.00000000E+00  0.00000000E+00  0.00000000E+00
  0.00000000E+00  0.00000000E+00  0.00000000E+00
  0.00000000E+00  0.00000000E+00  0.00000000E+00
  0.00000000E+00  0.00000000E+00  0.00000000E+00
  0.00000000E+00  0.00000000E+00  0.00000000E+00
  0.00000000E+00  0.00000000E+00  0.00000000E+00
