crystal structure from VMoWS2 with Hexag
   1.00000000000000     
     8.3543184498882628    4.8237379368991578    0.0000000000000000
    -8.3386164014933168    4.7965442585473355    0.0000000000000000
     0.0000000000000000    0.0000000000000000   30.0000000000000000
   V    Mo   W    S 
     3     3     3    18
Direct
  0.3494860921773686 -0.0194059941560219  0.0010502285046245
  0.7023066249723461  0.6870760227117654 -0.0011312273272121
  0.6885062952948565  0.3329701651413189  0.0000254276042026
  0.2961775524048887  0.3329398549709197  0.0000455235843067
  0.0061277902829552  0.6480323696700369  0.0004849367795152
  0.6913632402101861  0.0184182890007714 -0.0004935715882759
 -0.0125047194961802  0.0219893963373832 -0.0005256066730791
  0.9976252678135763  0.3332811756098213 -0.0000024468699304
  0.2985763306522673  0.6442685796482692  0.0005622200217162
  0.1002136976254021  0.2221145732070472  0.9429240117784823
  0.2217833306730955  0.1072871375922712  0.0478592624106780
  0.1046498970890874  0.5483753620347739  0.9433355055869996
  0.2112599848137793  0.4442908106559830  0.0570856086000397
  0.1163257930867830  0.8961166818541492  0.9567403853349193
  0.2250737823837411  0.7791638417685529  0.0545392999670295
  0.4423791875728617  0.2202041803376349  0.9580262739308909
  0.5586670735195194  0.1143664229869190  0.0509269104867946
  0.4477341755986721  0.5590100123280223  0.9522431660660783
  0.5553923708389464  0.4463825827245084  0.0418392551403092
  0.4451562161119503  0.8812627446609305  0.9502820132157546
  0.5533369648499654  0.7704406947712240  0.0433129597056036
  0.7736588488242337  0.2252457227589284  0.9453832462097027
  0.8895427220445713  0.1181400900495745  0.0566447513309086
  0.7774291551253734  0.5521548409501227  0.9491754194579257
  0.8816999896655858  0.4413202627918821  0.0545966015543013
  0.7793197043424975  0.8876372961768390  0.9453231557002426
  0.8969270849586299  0.7851313368939198  0.0497465886874609
 
  0.00000000E+00  0.00000000E+00  0.00000000E+00
  0.00000000E+00  0.00000000E+00  0.00000000E+00
  0.00000000E+00  0.00000000E+00  0.00000000E+00
  0.00000000E+00  0.00000000E+00  0.00000000E+00
  0.00000000E+00  0.00000000E+00  0.00000000E+00
  0.00000000E+00  0.00000000E+00  0.00000000E+00
  0.00000000E+00  0.00000000E+00  0.00000000E+00
  0.00000000E+00  0.00000000E+00  0.00000000E+00
  0.00000000E+00  0.00000000E+00  0.00000000E+00
  0.00000000E+00  0.00000000E+00  0.00000000E+00
  0.00000000E+00  0.00000000E+00  0.00000000E+00
  0.00000000E+00  0.00000000E+00  0.00000000E+00
  0.00000000E+00  0.00000000E+00  0.00000000E+00
  0.00000000E+00  0.00000000E+00  0.00000000E+00
  0.00000000E+00  0.00000000E+00  0.00000000E+00
  0.00000000E+00  0.00000000E+00  0.00000000E+00
  0.00000000E+00  0.00000000E+00  0.00000000E+00
  0.00000000E+00  0.00000000E+00  0.00000000E+00
  0.00000000E+00  0.00000000E+00  0.00000000E+00
  0.00000000E+00  0.00000000E+00  0.00000000E+00
  0.00000000E+00  0.00000000E+00  0.00000000E+00
  0.00000000E+00  0.00000000E+00  0.00000000E+00
  0.00000000E+00  0.00000000E+00  0.00000000E+00
  0.00000000E+00  0.00000000E+00  0.00000000E+00
  0.00000000E+00  0.00000000E+00  0.00000000E+00
  0.00000000E+00  0.00000000E+00  0.00000000E+00
  0.00000000E+00  0.00000000E+00  0.00000000E+00
