crystal structure from VMoWS2 with Hexag
   1.00000000000000     
     8.3085172829232032    4.8033480325615336    0.0000000000000000
    -8.3214313469139292    4.8257568704370311    0.0000000000000000
     0.0000000000000000    0.0000000000000000   30.0000000000000000
   V    Mo   W    S 
     3     3     3    18
Direct
  0.3144314475144595  0.6279988265787021 -0.0024915157000996
  0.3498304498133885  0.0324984966456877  0.0015012500734918
  0.0205019399707799  0.0396706120462410  0.0024240523199985
  0.3542860277380959  0.3372321907946843  0.0001286514204798
  0.9798423743243019  0.3331700372004588  0.0000942122224149
  0.6709271436599898  0.3382222576607721  0.0002549911888161
 -0.0204181640599718  0.6313395699695579 -0.0014701294888683
  0.6820186706790280  0.0358908722912482  0.0013883469966559
  0.6518317876350536  0.6297774360093507 -0.0017487990726881
  0.1138554002137013  0.2272418084904071  0.9499154151939311
  0.2248217807440420  0.1114232705189519  0.0535952759525826
  0.1112295769202815  0.5530740458768720  0.9450042766895035
  0.2201582855323016  0.4404327344632509  0.0504511037254217
  0.1111912047641944  0.8918478728942208  0.9576544706683164
  0.2246554486303442  0.7769134713679029  0.0422810743912969
  0.4447111341804697  0.2187914346111844  0.9460789803881714
  0.5510821312914709  0.1106676704814803  0.0548379419391783
  0.4422513720009714  0.5526878886164638  0.9445689416881331
  0.5568507289451556  0.4412122005673462  0.0563873671688512
  0.4405753771254107  0.8862934691720787  0.9563855934299605
  0.5516991875061615  0.7756654611582396  0.0427774212789219
  0.7763096881988403  0.2259856366355037  0.9438604564437705
  0.8918643848890090  0.1144616218282507  0.0550630015456853
  0.7762674763235009  0.5524999770362755  0.9427339053449560
  0.8845296845817745  0.4409128585702217  0.0566105432508752
  0.7823240977112649  0.8905600638969728  0.9569308637329931
  0.8905858166029594  0.7817426680952451  0.0447822064072421
 
  0.00000000E+00  0.00000000E+00  0.00000000E+00
  0.00000000E+00  0.00000000E+00  0.00000000E+00
  0.00000000E+00  0.00000000E+00  0.00000000E+00
  0.00000000E+00  0.00000000E+00  0.00000000E+00
  0.00000000E+00  0.00000000E+00  0.00000000E+00
  0.00000000E+00  0.00000000E+00  0.00000000E+00
  0.00000000E+00  0.00000000E+00  0.00000000E+00
  0.00000000E+00  0.00000000E+00  0.00000000E+00
  0.00000000E+00  0.00000000E+00  0.00000000E+00
  0.00000000E+00  0.00000000E+00  0.00000000E+00
  0.00000000E+00  0.00000000E+00  0.00000000E+00
  0.00000000E+00  0.00000000E+00  0.00000000E+00
  0.00000000E+00  0.00000000E+00  0.00000000E+00
  0.00000000E+00  0.00000000E+00  0.00000000E+00
  0.00000000E+00  0.00000000E+00  0.00000000E+00
  0.00000000E+00  0.00000000E+00  0.00000000E+00
  0.00000000E+00  0.00000000E+00  0.00000000E+00
  0.00000000E+00  0.00000000E+00  0.00000000E+00
  0.00000000E+00  0.00000000E+00  0.00000000E+00
  0.00000000E+00  0.00000000E+00  0.00000000E+00
  0.00000000E+00  0.00000000E+00  0.00000000E+00
  0.00000000E+00  0.00000000E+00  0.00000000E+00
  0.00000000E+00  0.00000000E+00  0.00000000E+00
  0.00000000E+00  0.00000000E+00  0.00000000E+00
  0.00000000E+00  0.00000000E+00  0.00000000E+00
  0.00000000E+00  0.00000000E+00  0.00000000E+00
  0.00000000E+00  0.00000000E+00  0.00000000E+00
