crystal structure from VMoWS2 with Hexag
   1.00000000000000     
     8.3883577810474872    4.8283279940572887    0.0000000000000000
    -8.3834665551432881    4.8197038367497944    0.0000000000000000
     0.0000000000000000    0.0000000000000000   30.0000000000000000
   V    Mo   W    S 
     3     3     3    18
Direct
  1.0153771016061859  0.3120107775695670  0.0017979064427283
 -0.0111106918815624 -0.0089482909467404 -0.0013279129167015
  0.6890269298960614  0.6526608023089741  0.0024970663976458
  0.6484640855796385  0.0153984806798640 -0.0005237624880760
  0.0183747935278910  0.7034148076337652  0.0003989635406676
  0.3468958417053308 -0.0011016917575812  0.0000199697016549
  0.3339717793256192  0.3085135184734861 -0.0002684090765642
  0.3207302906065649  0.6932559784692869 -0.0011523921696821
  0.6373982082674576  0.3143723688742956  0.0000261291299749
  0.1081492139811467  0.2142887349130705  0.9479119005793152
  0.2149627612731025  0.1045632291702000  0.0513049390996155
  0.1057886857551850  0.5526339369127531  0.9507858430039507
  0.2270021451589534  0.4468605201905023  0.0473593771306514
  0.1138471471434626  0.9012773248570503  0.9469137425926467
  0.2237406653900349  0.7860984374305864  0.0563545562628486
  0.4427220883068277  0.2160864351332024  0.9432415646336729
  0.5530343883796454  0.1153183182439219  0.0566071542131683
  0.4471377611545114  0.5601397373695025  0.9580766041729676
  0.5562395691425924  0.4442653540936184  0.0532107878312625
  0.4450085229020650  0.8908329502815372  0.9434549211240485
  0.5564161888726120  0.7747208823629927  0.0453977062607660
  0.7850030097885735  0.2304345354367439  0.9499847538303401
  0.8865106526725121  0.1070403260560787  0.0494373970578546
  0.7811753919151149  0.5554434141024645  0.9503000285343970
  0.8930983866030080  0.4420537346621261  0.0403941731244924
  0.7709878492867606  0.8812825525783883  0.9542499472772171
  0.8882616870777130  0.7852972783779181  0.0535469439091156
 
  0.00000000E+00  0.00000000E+00  0.00000000E+00
  0.00000000E+00  0.00000000E+00  0.00000000E+00
  0.00000000E+00  0.00000000E+00  0.00000000E+00
  0.00000000E+00  0.00000000E+00  0.00000000E+00
  0.00000000E+00  0.00000000E+00  0.00000000E+00
  0.00000000E+00  0.00000000E+00  0.00000000E+00
  0.00000000E+00  0.00000000E+00  0.00000000E+00
  0.00000000E+00  0.00000000E+00  0.00000000E+00
  0.00000000E+00  0.00000000E+00  0.00000000E+00
  0.00000000E+00  0.00000000E+00  0.00000000E+00
  0.00000000E+00  0.00000000E+00  0.00000000E+00
  0.00000000E+00  0.00000000E+00  0.00000000E+00
  0.00000000E+00  0.00000000E+00  0.00000000E+00
  0.00000000E+00  0.00000000E+00  0.00000000E+00
  0.00000000E+00  0.00000000E+00  0.00000000E+00
  0.00000000E+00  0.00000000E+00  0.00000000E+00
  0.00000000E+00  0.00000000E+00  0.00000000E+00
  0.00000000E+00  0.00000000E+00  0.00000000E+00
  0.00000000E+00  0.00000000E+00  0.00000000E+00
  0.00000000E+00  0.00000000E+00  0.00000000E+00
  0.00000000E+00  0.00000000E+00  0.00000000E+00
  0.00000000E+00  0.00000000E+00  0.00000000E+00
  0.00000000E+00  0.00000000E+00  0.00000000E+00
  0.00000000E+00  0.00000000E+00  0.00000000E+00
  0.00000000E+00  0.00000000E+00  0.00000000E+00
  0.00000000E+00  0.00000000E+00  0.00000000E+00
  0.00000000E+00  0.00000000E+00  0.00000000E+00
