crystal structure from VMoWS2 with Hexag
   1.00000000000000     
     8.3820141789732201    4.8282420002329038    0.0000000000000000
    -8.3897107606291819    4.8414038783365774    0.0000000000000000
     0.0000000000000000    0.0000000000000000   30.0000000000000000
   V    Mo   W    S 
     3     3     3    18
Direct
  0.6514384899315806  0.6328394643977977 -0.0006217489119853
  0.3339373523925434  0.6412156591292281  0.0003543176446236
  1.0180986171525592  0.3145057611349300  0.0006403322366011
  0.0328988986539255  0.0131864499458760 -0.0001632802047772
  0.3315570999721647  0.3253392205053843  0.0000130956850190
  0.3316263271534345  0.0200254219396966 -0.0000166579105323
  0.0224358329042320  0.7063723709681305  0.0015624045352845
  0.6437963429449579  0.0171798032236245 -0.0017959492420277
  0.6340952624575507  0.3148087460731009 -0.0000425556137933
  0.1119334280818687  0.2234429395481305  0.9455363756361352
  0.2257545988840142  0.1167399769506478  0.0568581478312669
  0.1122786237660723  0.5507119933820386  0.9542553258637093
  0.2185555250304795  0.4409904419721355  0.0517910910578975
  0.1162737106177774  0.8953250335943000  0.9437499820188047
  0.2340317280362165  0.7814419814015685  0.0494239563769219
  0.4405146103907924  0.2240541857349875  0.9430691364907454
  0.5498771042153718  0.1138161201891667  0.0559097093001064
  0.4482620312805047  0.5567469242371627  0.9488350687704254
  0.5552925698224831  0.4458109114997388  0.0541364935179756
  0.4313680009766584  0.8791127867059322  0.9508238389455518
  0.5552614407972585  0.7734774935920951  0.0461691886812853
  0.7819634342807735  0.2306556388412502  0.9500972252156864
  0.8861251747530725  0.1097365810344713  0.0483779062373569
  0.7800763873280959  0.5569066711690369  0.9512928551909404
  0.8923167716620610  0.4455761078836987  0.0402250056930685
  0.7732149766443923  0.8872417874043003  0.9594709058835197
  0.8852301133061199  0.7809539810191406  0.0500477282701994
 
  0.00000000E+00  0.00000000E+00  0.00000000E+00
  0.00000000E+00  0.00000000E+00  0.00000000E+00
  0.00000000E+00  0.00000000E+00  0.00000000E+00
  0.00000000E+00  0.00000000E+00  0.00000000E+00
  0.00000000E+00  0.00000000E+00  0.00000000E+00
  0.00000000E+00  0.00000000E+00  0.00000000E+00
  0.00000000E+00  0.00000000E+00  0.00000000E+00
  0.00000000E+00  0.00000000E+00  0.00000000E+00
  0.00000000E+00  0.00000000E+00  0.00000000E+00
  0.00000000E+00  0.00000000E+00  0.00000000E+00
  0.00000000E+00  0.00000000E+00  0.00000000E+00
  0.00000000E+00  0.00000000E+00  0.00000000E+00
  0.00000000E+00  0.00000000E+00  0.00000000E+00
  0.00000000E+00  0.00000000E+00  0.00000000E+00
  0.00000000E+00  0.00000000E+00  0.00000000E+00
  0.00000000E+00  0.00000000E+00  0.00000000E+00
  0.00000000E+00  0.00000000E+00  0.00000000E+00
  0.00000000E+00  0.00000000E+00  0.00000000E+00
  0.00000000E+00  0.00000000E+00  0.00000000E+00
  0.00000000E+00  0.00000000E+00  0.00000000E+00
  0.00000000E+00  0.00000000E+00  0.00000000E+00
  0.00000000E+00  0.00000000E+00  0.00000000E+00
  0.00000000E+00  0.00000000E+00  0.00000000E+00
  0.00000000E+00  0.00000000E+00  0.00000000E+00
  0.00000000E+00  0.00000000E+00  0.00000000E+00
  0.00000000E+00  0.00000000E+00  0.00000000E+00
  0.00000000E+00  0.00000000E+00  0.00000000E+00
