crystal structure from VMoWS2 with Hexag
   1.00000000000000     
     8.2900584096852583    4.8020744522220928    0.0000000000000000
    -8.2837307823740787    4.7910583915643832    0.0000000000000000
     0.0000000000000000    0.0000000000000000   30.0000000000000000
   V    Mo   W    S 
     3     3     3    18
Direct
  0.6767891130607574  0.6745674257507447 -0.0003298810669929
  0.3300857497269536 -0.0144105598460556 -0.0000454439629782
  0.3343973034104107  0.3336869349704534  0.0009170298696537
  0.6838926797159947  0.0150527109762223 -0.0002098726115787
 -0.0179718144989147  0.0040779886159065  0.0002027220980453
  0.9762429922396386  0.3060608170588046  0.0002647838762101
  0.0071875895663646  0.6740992523731080 -0.0001209017038968
  0.3324119945066172  0.6808718819908485 -0.0000281557153278
  0.6814718642163473  0.3267823106824492 -0.0001818857628424
  0.1134249208085747  0.2234389972698405  0.9485538508661868
  0.2242970103686329  0.1113467269337373  0.0480926377511919
  0.1085766649618547  0.5496205413519343  0.9500124180728705
  0.2204210402591879  0.4420636478336137  0.0484572039565165
  0.1145201686132576  0.8955553025226566  0.9500963199800353
  0.2241075684558809  0.7851846811983089  0.0538801728815585
  0.4420197969008509  0.2190094891218655  0.9517977272370418
  0.5516703060413332  0.1094951748577710  0.0512882286111539
  0.4474785613379909  0.5554875088181978  0.9514529532484329
  0.5586593893387823  0.4465746095587310  0.0474688221075276
  0.4444902863984218  0.8936210847138071  0.9478644101227466
  0.5576922494743055  0.7761150365377117  0.0498932388699308
  0.7768643710633238  0.2200749914422087  0.9431202961164581
  0.8847490176929931  0.1084168506753530  0.0571051300315479
  0.7769979667537840  0.5574438969276743  0.9492759915991954
  0.8924154911821539  0.4449282805052736  0.0529333975859315
  0.7718293341546653  0.8835638064163919  0.9464902686210938
  0.8834928376868132  0.7754850642200110  0.0517484365202886
 
  0.00000000E+00  0.00000000E+00  0.00000000E+00
  0.00000000E+00  0.00000000E+00  0.00000000E+00
  0.00000000E+00  0.00000000E+00  0.00000000E+00
  0.00000000E+00  0.00000000E+00  0.00000000E+00
  0.00000000E+00  0.00000000E+00  0.00000000E+00
  0.00000000E+00  0.00000000E+00  0.00000000E+00
  0.00000000E+00  0.00000000E+00  0.00000000E+00
  0.00000000E+00  0.00000000E+00  0.00000000E+00
  0.00000000E+00  0.00000000E+00  0.00000000E+00
  0.00000000E+00  0.00000000E+00  0.00000000E+00
  0.00000000E+00  0.00000000E+00  0.00000000E+00
  0.00000000E+00  0.00000000E+00  0.00000000E+00
  0.00000000E+00  0.00000000E+00  0.00000000E+00
  0.00000000E+00  0.00000000E+00  0.00000000E+00
  0.00000000E+00  0.00000000E+00  0.00000000E+00
  0.00000000E+00  0.00000000E+00  0.00000000E+00
  0.00000000E+00  0.00000000E+00  0.00000000E+00
  0.00000000E+00  0.00000000E+00  0.00000000E+00
  0.00000000E+00  0.00000000E+00  0.00000000E+00
  0.00000000E+00  0.00000000E+00  0.00000000E+00
  0.00000000E+00  0.00000000E+00  0.00000000E+00
  0.00000000E+00  0.00000000E+00  0.00000000E+00
  0.00000000E+00  0.00000000E+00  0.00000000E+00
  0.00000000E+00  0.00000000E+00  0.00000000E+00
  0.00000000E+00  0.00000000E+00  0.00000000E+00
  0.00000000E+00  0.00000000E+00  0.00000000E+00
  0.00000000E+00  0.00000000E+00  0.00000000E+00
