crystal structure from VMoWS2 with Hexag
   1.00000000000000     
     8.3911346574987764    4.8202921595804922    0.0000000000000000
    -8.3955344943442096    4.8277930452923767    0.0000000000000000
     0.0000000000000000    0.0000000000000000   30.0000000000000000
   V    Mo   W    S 
     3     3     3    18
Direct
 -0.0094976427325941  0.6339302255417966  0.0002056607845621
  0.3094742806096857  0.3517859606863140 -0.0023025662437342
  0.6732663946984557  0.6394580497681179  0.0008876839154419
  0.9770184444080413  0.3120614160259847  0.0003134943903403
  0.6821739733090246  0.3241706301030343  0.0006793027694049
  0.6671396689744233  0.0191643978038264 -0.0001797130438402
 -0.0203744329426963  0.0176968740600904 -0.0014128700156463
  0.3634579975742809 -0.0018839005333144  0.0013252670160449
  0.3518298164044800  0.6969525123874025  0.0003518911471575
  0.1078172795648188  0.2260803061552501  0.9455197913969685
  0.2248236911224334  0.1178774560076775  0.0432226453915727
  0.1147181119992318  0.5553768338170669  0.9511925537504956
  0.2198298747838411  0.4526534665527174  0.0494897419520244
  0.1088515418112002  0.8862521590088521  0.9588528490186339
  0.2200386251704668  0.7785555098775756  0.0517450229166871
  0.4393738374824985  0.2267534260255240  0.9543826881267480
  0.5592683825165958  0.1142729423844289  0.0572859619099095
  0.4514506190049707  0.5591195284217888  0.9498228795629716
  0.5430278317620217  0.4351268063803982  0.0470887268368892
  0.4521902436381070  0.8960986056472900  0.9436536959331590
  0.5675250863227932  0.7761838515401055  0.0479987161132578
  0.7777344472287205  0.2221712783900733  0.9433804054463818
  0.8821950775200353  0.1093173438687746  0.0563478439500803
  0.7841631523105521  0.5520417901625462  0.9490501504243753
  0.8900348998960819  0.4439709686221636  0.0550731113360668
  0.7686399444734939  0.8794019973338515  0.9501628630173443
  0.8920433065260188  0.7736240174382359  0.0458621013966924
 
  0.00000000E+00  0.00000000E+00  0.00000000E+00
  0.00000000E+00  0.00000000E+00  0.00000000E+00
  0.00000000E+00  0.00000000E+00  0.00000000E+00
  0.00000000E+00  0.00000000E+00  0.00000000E+00
  0.00000000E+00  0.00000000E+00  0.00000000E+00
  0.00000000E+00  0.00000000E+00  0.00000000E+00
  0.00000000E+00  0.00000000E+00  0.00000000E+00
  0.00000000E+00  0.00000000E+00  0.00000000E+00
  0.00000000E+00  0.00000000E+00  0.00000000E+00
  0.00000000E+00  0.00000000E+00  0.00000000E+00
  0.00000000E+00  0.00000000E+00  0.00000000E+00
  0.00000000E+00  0.00000000E+00  0.00000000E+00
  0.00000000E+00  0.00000000E+00  0.00000000E+00
  0.00000000E+00  0.00000000E+00  0.00000000E+00
  0.00000000E+00  0.00000000E+00  0.00000000E+00
  0.00000000E+00  0.00000000E+00  0.00000000E+00
  0.00000000E+00  0.00000000E+00  0.00000000E+00
  0.00000000E+00  0.00000000E+00  0.00000000E+00
  0.00000000E+00  0.00000000E+00  0.00000000E+00
  0.00000000E+00  0.00000000E+00  0.00000000E+00
  0.00000000E+00  0.00000000E+00  0.00000000E+00
  0.00000000E+00  0.00000000E+00  0.00000000E+00
  0.00000000E+00  0.00000000E+00  0.00000000E+00
  0.00000000E+00  0.00000000E+00  0.00000000E+00
  0.00000000E+00  0.00000000E+00  0.00000000E+00
  0.00000000E+00  0.00000000E+00  0.00000000E+00
  0.00000000E+00  0.00000000E+00  0.00000000E+00
