crystal structure from VMoWS2 with Hexag
   1.00000000000000     
     8.3229985881029389    4.8241477374969035    0.0000000000000000
    -8.3314647253562679    4.8388261915796820    0.0000000000000000
     0.0000000000000000    0.0000000000000000   30.0000000000000000
   V    Mo   W    S 
     3     3     3    18
Direct
  0.2984736168782240 -0.0050787984394788  0.0010919581568929
  0.3150523859814580  0.6391161118473383 -0.0002317156782185
  0.6492703290429888  0.6321402635740001 -0.0011842365666610
  1.0012279711453358  0.3319540647137404  0.0001210566618718
  0.0153587282427519  0.0347437984676133  0.0001941949755610
  0.3064246194792677  0.3239055982528959  0.0005540142674266
 -0.0090851294986363  0.6437428185417040  0.0001880833054184
  0.7022660290182278  0.0328702657858669 -0.0003362077930763
  0.7022349648562011  0.3490014339394227 -0.0004453706227989
  0.1109210474463712  0.2293671624934564  0.9433398404428391
  0.2207579436557032  0.1102611169224506  0.0555059357978010
  0.1174115852849568  0.5609729110081333  0.9465004453622208
  0.2256997745998260  0.4491153693792526  0.0547805989659816
  0.1046613283058292  0.8890280803013727  0.9500837185756863
  0.2240288746797779  0.7762758320383361  0.0491580757180979
  0.4472953263696474  0.2187213064884523  0.9559381198239412
  0.5534071492626601  0.1111069936343130  0.0474147430895380
  0.4409988269384111  0.5533025316327566  0.9487096942937425
  0.5549104964607711  0.4363184733056729  0.0494174418270058
  0.4433532762859981  0.8900947613361621  0.9589613173795247
  0.5577778721543377  0.7767503371641536  0.0427693329577975
  0.7856285764762958  0.2298370918153919  0.9433362166833537
  0.8962666598414167  0.1185887735812185  0.0567466145802356
  0.7770868830229752  0.5564463834551548  0.9454549923663655
  0.8963487972862791  0.4453426636807336  0.0565811131677621
  0.7770525057749778  0.8851211551326895  0.9518155177767356
  0.8833840144449295  0.7791679534247743  0.0435344036849445
 
  0.00000000E+00  0.00000000E+00  0.00000000E+00
  0.00000000E+00  0.00000000E+00  0.00000000E+00
  0.00000000E+00  0.00000000E+00  0.00000000E+00
  0.00000000E+00  0.00000000E+00  0.00000000E+00
  0.00000000E+00  0.00000000E+00  0.00000000E+00
  0.00000000E+00  0.00000000E+00  0.00000000E+00
  0.00000000E+00  0.00000000E+00  0.00000000E+00
  0.00000000E+00  0.00000000E+00  0.00000000E+00
  0.00000000E+00  0.00000000E+00  0.00000000E+00
  0.00000000E+00  0.00000000E+00  0.00000000E+00
  0.00000000E+00  0.00000000E+00  0.00000000E+00
  0.00000000E+00  0.00000000E+00  0.00000000E+00
  0.00000000E+00  0.00000000E+00  0.00000000E+00
  0.00000000E+00  0.00000000E+00  0.00000000E+00
  0.00000000E+00  0.00000000E+00  0.00000000E+00
  0.00000000E+00  0.00000000E+00  0.00000000E+00
  0.00000000E+00  0.00000000E+00  0.00000000E+00
  0.00000000E+00  0.00000000E+00  0.00000000E+00
  0.00000000E+00  0.00000000E+00  0.00000000E+00
  0.00000000E+00  0.00000000E+00  0.00000000E+00
  0.00000000E+00  0.00000000E+00  0.00000000E+00
  0.00000000E+00  0.00000000E+00  0.00000000E+00
  0.00000000E+00  0.00000000E+00  0.00000000E+00
  0.00000000E+00  0.00000000E+00  0.00000000E+00
  0.00000000E+00  0.00000000E+00  0.00000000E+00
  0.00000000E+00  0.00000000E+00  0.00000000E+00
  0.00000000E+00  0.00000000E+00  0.00000000E+00
