crystal structure from VMoWS2 with Hexag
   1.00000000000000     
     8.3136474541980849    4.8288680235976118    0.0000000000000000
    -8.2985017309434159    4.8029401084137131    0.0000000000000000
     0.0000000000000000    0.0000000000000000   30.0000000000000000
   V    Mo   W    S 
     3     3     3    18
Direct
  0.0309356992719552  0.6873380064839478 -0.0010281442502347
  1.0388421938247212  0.3479792642062737 -0.0026677318325961
  0.6301691572064927  0.6545880763337047  0.0027193595942729
  0.0376576685294751  0.0163969962279898 -0.0017351198851790
  0.3388011042334124  0.6893295554507574 -0.0000980015594110
  0.3356017386654190  0.0012179691384639 -0.0001520803343492
  0.3307886083348447  0.3121960759856012  0.0000046832848950
  0.6302886834677984 -0.0158488632558111  0.0016578112873932
  0.6324387847156073  0.3109261502498677  0.0011653041832212
  0.1176147910632179  0.2265878106637995  0.9441423421387148
  0.2276527364148005  0.1108957404177407  0.0561445278864783
  0.1096401461651537  0.5576193493080596  0.9473890411349372
  0.2272535544324564  0.4461198651403243  0.0498750055069206
  0.1109367561438101  0.8830766886801203  0.9448737876824677
  0.2181317753739750  0.7777807458292170  0.0542835725555929
  0.4396732726822508  0.2175221461101906  0.9434867668284774
  0.5521090821313034  0.1085781535671785  0.0571124894436882
  0.4407321606362201  0.5541856603438238  0.9500517710548502
  0.5536545320855999  0.4452423639230418  0.0540958560471197
  0.4410064588584128  0.8899739292467420  0.9435296347499363
  0.5519140821485410  0.7765649841374208  0.0560568301109429
  0.7815622506260911  0.2223219663661270  0.9545435281955478
  0.8896361189061471  0.1147398411738929  0.0431549396094784
  0.7768253856271989  0.5589865990683458  0.9581923102863754
  0.8915156916907917  0.4429519984744646  0.0419112476970372
  0.7763660451699141  0.8857820816769704  0.9568092101435649
  0.8864659750313745  0.7751612985293173  0.0444809576398556
 
  0.00000000E+00  0.00000000E+00  0.00000000E+00
  0.00000000E+00  0.00000000E+00  0.00000000E+00
  0.00000000E+00  0.00000000E+00  0.00000000E+00
  0.00000000E+00  0.00000000E+00  0.00000000E+00
  0.00000000E+00  0.00000000E+00  0.00000000E+00
  0.00000000E+00  0.00000000E+00  0.00000000E+00
  0.00000000E+00  0.00000000E+00  0.00000000E+00
  0.00000000E+00  0.00000000E+00  0.00000000E+00
  0.00000000E+00  0.00000000E+00  0.00000000E+00
  0.00000000E+00  0.00000000E+00  0.00000000E+00
  0.00000000E+00  0.00000000E+00  0.00000000E+00
  0.00000000E+00  0.00000000E+00  0.00000000E+00
  0.00000000E+00  0.00000000E+00  0.00000000E+00
  0.00000000E+00  0.00000000E+00  0.00000000E+00
  0.00000000E+00  0.00000000E+00  0.00000000E+00
  0.00000000E+00  0.00000000E+00  0.00000000E+00
  0.00000000E+00  0.00000000E+00  0.00000000E+00
  0.00000000E+00  0.00000000E+00  0.00000000E+00
  0.00000000E+00  0.00000000E+00  0.00000000E+00
  0.00000000E+00  0.00000000E+00  0.00000000E+00
  0.00000000E+00  0.00000000E+00  0.00000000E+00
  0.00000000E+00  0.00000000E+00  0.00000000E+00
  0.00000000E+00  0.00000000E+00  0.00000000E+00
  0.00000000E+00  0.00000000E+00  0.00000000E+00
  0.00000000E+00  0.00000000E+00  0.00000000E+00
  0.00000000E+00  0.00000000E+00  0.00000000E+00
  0.00000000E+00  0.00000000E+00  0.00000000E+00
