crystal structure from VMoWS2 with Hexag
   1.00000000000000     
     8.3585155068488817    4.8603271715844958    0.0000000000000000
    -8.3345245181053880    4.8188671017895004    0.0000000000000000
     0.0000000000000000    0.0000000000000000   30.0000000000000000
   V    Mo   W    S 
     3     3     3    18
Direct
 -0.0415935214019992 -0.0250240844983383  0.0022903737657822
  1.0412133159111121  0.3501672796284472 -0.0043267272918564
  0.3580018305610533  0.6827898663522326 -0.0002990493958901
  0.6446044323032118 -0.0277709864800238  0.0009369734764785
  0.3729222339591496  0.0207065550839753 -0.0028317546746611
  0.6652587989819523  0.6631006721903182  0.0006294326596533
 -0.0422500139219535  0.6527307957898032  0.0019820160766202
  0.3605368823658627  0.3438046566358280 -0.0003040367988378
  0.6473697547421972  0.3391778502281713  0.0004563461862228
  0.1125037105177197  0.2106694013622027  0.9520527273765331
  0.2150132831567139  0.1051175439279141  0.0435676213961576
  0.1144108165460867  0.5658394667827593  0.9529140501013452
  0.2316069830615419  0.4522074124308358  0.0493160861062518
  0.1078971656024458  0.8904271070471120  0.9564387156388645
  0.2177623719629844  0.7775794415146400  0.0431045322724753
  0.4493854407183048  0.2260813868312491  0.9427115218856338
  0.5650246021861206  0.1162761853684263  0.0536289556351658
  0.4388861781361146  0.5568273316256431  0.9472412854631712
  0.5563451186852852  0.4457977227637816  0.0571189635394657
  0.4439142690271043  0.8827462269321965  0.9443185767959734
  0.5469513855555663  0.7715507622852191  0.0553439781268052
  0.7874994193771150  0.2271398667256270  0.9584978380796357
  0.8933911888212688  0.1166800737362755  0.0480038785078624
  0.7671886083456356  0.5511470895167198  0.9449036178373413
  0.8909087173684582  0.4373490523646444  0.0489169752743860
  0.7732625941585327  0.8859017104495637  0.9473585217876962
  0.8801988867093777  0.7791940668823156  0.0560284793717200
 
  0.00000000E+00  0.00000000E+00  0.00000000E+00
  0.00000000E+00  0.00000000E+00  0.00000000E+00
  0.00000000E+00  0.00000000E+00  0.00000000E+00
  0.00000000E+00  0.00000000E+00  0.00000000E+00
  0.00000000E+00  0.00000000E+00  0.00000000E+00
  0.00000000E+00  0.00000000E+00  0.00000000E+00
  0.00000000E+00  0.00000000E+00  0.00000000E+00
  0.00000000E+00  0.00000000E+00  0.00000000E+00
  0.00000000E+00  0.00000000E+00  0.00000000E+00
  0.00000000E+00  0.00000000E+00  0.00000000E+00
  0.00000000E+00  0.00000000E+00  0.00000000E+00
  0.00000000E+00  0.00000000E+00  0.00000000E+00
  0.00000000E+00  0.00000000E+00  0.00000000E+00
  0.00000000E+00  0.00000000E+00  0.00000000E+00
  0.00000000E+00  0.00000000E+00  0.00000000E+00
  0.00000000E+00  0.00000000E+00  0.00000000E+00
  0.00000000E+00  0.00000000E+00  0.00000000E+00
  0.00000000E+00  0.00000000E+00  0.00000000E+00
  0.00000000E+00  0.00000000E+00  0.00000000E+00
  0.00000000E+00  0.00000000E+00  0.00000000E+00
  0.00000000E+00  0.00000000E+00  0.00000000E+00
  0.00000000E+00  0.00000000E+00  0.00000000E+00
  0.00000000E+00  0.00000000E+00  0.00000000E+00
  0.00000000E+00  0.00000000E+00  0.00000000E+00
  0.00000000E+00  0.00000000E+00  0.00000000E+00
  0.00000000E+00  0.00000000E+00  0.00000000E+00
  0.00000000E+00  0.00000000E+00  0.00000000E+00
