crystal structure from VMoWS2 with Hexag
   1.00000000000000     
     8.3358999741603075    4.7931167582801777    0.0000000000000000
    -8.3411408150570541    4.8022741590131117    0.0000000000000000
     0.0000000000000000    0.0000000000000000   30.0000000000000000
   V    Mo   W    S 
     3     3     3    18
Direct
  0.3532051563252205  0.3143903950496658  0.0028026385685320
  0.9840486660390593  0.3497745537595159 -0.0016406006252119
  0.6473836850396248  0.0207035168237290 -0.0027266953609096
  0.3132831042492093 -0.0203906875992456 -0.0000748056896181
 -0.0007734907906804  0.6710098650416524 -0.0002565048554020
  0.6837217796512181  0.3542298130594346 -0.0001152236209497
  0.0146422455715924 -0.0203705080925302  0.0015515177927065
  0.3125162505601129  0.6816078002438775 -0.0014483486593361
  0.6887624334583451  0.6521716854712015  0.0018167966196227
  0.1148342520727916  0.2247662841656700  0.9577690121110499
  0.2246107841761301  0.1106597648300235  0.0551672641265855
  0.1067512493584891  0.5511759614748478  0.9450656421903604
  0.2208198020349984  0.4404573573864079  0.0436935896382952
  0.1100887311157297  0.8848400537013545  0.9434452881795609
  0.2169467983990503  0.7759318011515739  0.0561191475819660
  0.4460374983791198  0.2202272740382527  0.9496816764832069
  0.5534188600871052  0.1135697440692848  0.0499984839690940
  0.4426282277337968  0.5513544329414759  0.9572760550042992
  0.5568789578778655  0.4426884771249796  0.0556177164746546
  0.4435619673685678  0.8914735035375185  0.9447818785396521
  0.5583936054346741  0.7827517582814868  0.0429706420309849
  0.7801444706323487  0.2253093178240098  0.9462099558924904
  0.8855436018799561  0.1112376588314259  0.0422949423560221
  0.7819888107312976  0.5570015073624777  0.9436605721487007
  0.8928279542787602  0.4445153321719351  0.0538367176587146
  0.7754862642200832  0.8907595892826088  0.9551313199553123
  0.8904627875525128  0.7763682015449385  0.0573712206896098
 
  0.00000000E+00  0.00000000E+00  0.00000000E+00
  0.00000000E+00  0.00000000E+00  0.00000000E+00
  0.00000000E+00  0.00000000E+00  0.00000000E+00
  0.00000000E+00  0.00000000E+00  0.00000000E+00
  0.00000000E+00  0.00000000E+00  0.00000000E+00
  0.00000000E+00  0.00000000E+00  0.00000000E+00
  0.00000000E+00  0.00000000E+00  0.00000000E+00
  0.00000000E+00  0.00000000E+00  0.00000000E+00
  0.00000000E+00  0.00000000E+00  0.00000000E+00
  0.00000000E+00  0.00000000E+00  0.00000000E+00
  0.00000000E+00  0.00000000E+00  0.00000000E+00
  0.00000000E+00  0.00000000E+00  0.00000000E+00
  0.00000000E+00  0.00000000E+00  0.00000000E+00
  0.00000000E+00  0.00000000E+00  0.00000000E+00
  0.00000000E+00  0.00000000E+00  0.00000000E+00
  0.00000000E+00  0.00000000E+00  0.00000000E+00
  0.00000000E+00  0.00000000E+00  0.00000000E+00
  0.00000000E+00  0.00000000E+00  0.00000000E+00
  0.00000000E+00  0.00000000E+00  0.00000000E+00
  0.00000000E+00  0.00000000E+00  0.00000000E+00
  0.00000000E+00  0.00000000E+00  0.00000000E+00
  0.00000000E+00  0.00000000E+00  0.00000000E+00
  0.00000000E+00  0.00000000E+00  0.00000000E+00
  0.00000000E+00  0.00000000E+00  0.00000000E+00
  0.00000000E+00  0.00000000E+00  0.00000000E+00
  0.00000000E+00  0.00000000E+00  0.00000000E+00
  0.00000000E+00  0.00000000E+00  0.00000000E+00
