crystal structure from VMoWS2 with Hexag
   1.00000000000000     
     8.3364861627474465    4.8114998104125997    0.0000000000000000
    -8.3383812434254523    4.8147834691641354    0.0000000000000000
     0.0000000000000000    0.0000000000000000   30.0000000000000000
   V    Mo   W    S 
     3     3     3    18
Direct
  0.6656883889264725  0.0304343066839324 -0.0000530510067670
 -0.0173327416847115  0.6312286995339877 -0.0001335932967896
  0.3506650433547852  0.3151742594050116  0.0002270690754423
  0.9847650964773677  0.3396658050662423 -0.0004978323012154
  0.6666960076806401  0.3272245836448806  0.0000262856071034
  0.3480784868324718  0.0210369951002176  0.0005292763813688
  0.0311740217105352  0.0353649393493259  0.0000394145372382
  0.3028945515034522  0.6724112860860233 -0.0001574705967001
  0.6667434663357351  0.6299581603765380  0.0000028261017743
  0.1284844944438644  0.2390866105971403  0.9488050547827385
  0.2299790829372906  0.1209062456773724  0.0555565591372135
  0.1033248062021193  0.5574280880112787  0.9445162701603621
  0.2277031447106442  0.4433893079900586  0.0450460646182485
  0.1056603256359942  0.8820724479194251  0.9547332361706954
  0.2047124322561362  0.7773418585824257  0.0513089548960374
  0.4484382716379270  0.2246759294564512  0.9451275960500946
  0.5572062709101565  0.1083577988565537  0.0552408868492099
  0.4404560935483585  0.5502290509236076  0.9530682108056672
  0.5491838637862639  0.4322816730619122  0.0550000895597691
  0.4494822584443747  0.8934479879045594  0.9491065227359341
  0.5555731156949011  0.7794896692262742  0.0421449369644809
  0.7758992381183121  0.2175515727663445  0.9448058080072874
  0.8835765943577426  0.1102143271243619  0.0505789321969206
  0.7841646008586675  0.5495748452481829  0.9450386411885737
  0.8847462648577380  0.4428859958000528  0.0549479249116872
  0.7776503720418705  0.8906480786728501  0.9579439570647640
  0.8926009018578681  0.7761339304125636  0.0470473285988524
 
  0.00000000E+00  0.00000000E+00  0.00000000E+00
  0.00000000E+00  0.00000000E+00  0.00000000E+00
  0.00000000E+00  0.00000000E+00  0.00000000E+00
  0.00000000E+00  0.00000000E+00  0.00000000E+00
  0.00000000E+00  0.00000000E+00  0.00000000E+00
  0.00000000E+00  0.00000000E+00  0.00000000E+00
  0.00000000E+00  0.00000000E+00  0.00000000E+00
  0.00000000E+00  0.00000000E+00  0.00000000E+00
  0.00000000E+00  0.00000000E+00  0.00000000E+00
  0.00000000E+00  0.00000000E+00  0.00000000E+00
  0.00000000E+00  0.00000000E+00  0.00000000E+00
  0.00000000E+00  0.00000000E+00  0.00000000E+00
  0.00000000E+00  0.00000000E+00  0.00000000E+00
  0.00000000E+00  0.00000000E+00  0.00000000E+00
  0.00000000E+00  0.00000000E+00  0.00000000E+00
  0.00000000E+00  0.00000000E+00  0.00000000E+00
  0.00000000E+00  0.00000000E+00  0.00000000E+00
  0.00000000E+00  0.00000000E+00  0.00000000E+00
  0.00000000E+00  0.00000000E+00  0.00000000E+00
  0.00000000E+00  0.00000000E+00  0.00000000E+00
  0.00000000E+00  0.00000000E+00  0.00000000E+00
  0.00000000E+00  0.00000000E+00  0.00000000E+00
  0.00000000E+00  0.00000000E+00  0.00000000E+00
  0.00000000E+00  0.00000000E+00  0.00000000E+00
  0.00000000E+00  0.00000000E+00  0.00000000E+00
  0.00000000E+00  0.00000000E+00  0.00000000E+00
  0.00000000E+00  0.00000000E+00  0.00000000E+00
